43
Coordinates from ORCA-job pbe0-d4-def2-TZVP_SCMwater E -2298.521976780486
  Fe          0.00000000000000      0.00000000000000      0.00000000000000
  O          -1.36291871903413     -0.88260422401676      1.17075654728606
  O           1.44581703900303     -0.73902012196852      1.17075654728606
  O          -0.08289831996890     -1.62162434598528     -1.17075654728606
  O           1.44581703900303      0.73902012196852     -1.17075654728606
  O          -1.36291871903413      0.88260422401676     -1.17075654728606
  O          -0.08289831996890      1.62162434598528      1.17075654728606
  C          -2.91455201506622     -2.37340154967268      2.10256430324291
  C           3.51270204293101     -1.33737531086213      2.10256430324291
  C          -0.59815002786479     -3.71077686053481     -2.10256430324291
  C           3.51270204293101      1.33737531086213     -2.10256430324291
  C          -2.91455201506622      2.37340154967268     -2.10256430324291
  C          -0.59815002786479      3.71077686053481      2.10256430324291
  C          -1.68029102530308      2.91034942732694      0.00000000000000
  C          -1.68029102530308     -2.91034942732694      0.00000000000000
  C           3.36058205060617      0.00000000000000      0.00000000000000
  C          -1.92747811233977     -2.01666676220583      1.04254598118175
  C           2.71022370320785     -0.66091162942181      1.04254598118175
  C          -0.78274559086807     -2.67757839162763     -1.04254598118175
  C           2.71022370320785      0.66091162942181     -1.04254598118175
  C          -1.92747811233977      2.01666676220583     -1.04254598118175
  C          -0.78274559086807      2.67757839162763      1.04254598118175
  H          -3.35993443071935     -3.35303840879229      1.93932138462056
  H           4.58378365723875     -1.23326936765682      1.93932138462056
  H          -1.22384922651940     -4.58630777644911     -1.93932138462056
  H           4.58378365723875      1.23326936765682     -1.93932138462056
  H          -3.35993443071935      3.35303840879229     -1.93932138462056
  H          -1.22384922651940      4.58630777644911      1.93932138462056
  H          -2.22062777189761      3.84624012562514      0.00000000000000
  H          -2.22062777189761     -3.84624012562514      0.00000000000000
  H           4.44125554379523     -0.00000000000000      0.00000000000000
  H          -3.70150796778412     -1.61475890836255      2.12910336155759
  H           3.24917621952126     -2.39822047823029      2.12910336155759
  H           0.45233174826287     -4.01297938659284     -2.12910336155759
  H           3.24917621952126      2.39822047823029     -2.12910336155759
  H          -3.70150796778412      1.61475890836255     -2.12910336155759
  H           0.45233174826287      4.01297938659284      2.12910336155759
  H          -2.41722475349565     -2.35600289632281      3.07614544666894
  H           3.24897073635309     -0.91537659502240      3.07614544666894
  H          -0.83174598285744     -3.27137949134522     -3.07614544666894
  H           3.24897073635309      0.91537659502240     -3.07614544666894
  H          -2.41722475349565      2.35600289632281     -3.07614544666894
  H          -0.83174598285744      3.27137949134522      3.07614544666894
