13
 energy: -21.060540633418 gnorm: 0.000044878806 xtb: 6.7.1 (edcfbbe)
N           -0.99025603372434        0.44155446308628        1.48558493275754
C            0.27084224315997        0.42896423157466        0.71093061908514
C           -0.12936511546746       -0.08803970255195       -0.73196943473413
O           -1.34635237649455       -0.36403817814106       -0.83977340204545
C            1.31119633593648       -0.48392793485596        1.33615269091631
O            0.75689363966947       -0.16241215797099       -1.58464009005432
H           -1.66559289062099        0.06982082388324        0.74028772972704
H           -0.95896597872687       -0.20123364053310        2.28047785698902
H            0.67430146990629        1.43464524562453        0.58996811455078
H            1.64864124878894       -0.09624728283670        2.29383319640356
H            0.91096850207869       -1.48741442704286        1.46169504524313
H            2.16406028711385       -0.55133674168518        0.66575627173386
H           -1.27796236507449        1.37154663349363        1.79238153906337
