13
 energy: -21.058058579284 gnorm: 0.000045896177 xtb: 6.7.1 (edcfbbe)
N           -0.95920498889271        0.55501719847989        1.53143917468319
C            0.23868331257108        0.42569261366092        0.72109996302730
C           -0.14269832105520       -0.01255856371995       -0.67858057763627
O           -1.08558071689546       -0.73083336200631       -0.93320132451870
C            1.25557978016503       -0.61149833599275        1.24018261373805
O            0.70002344343158        0.42364921389656       -1.59449993602250
H           -1.58481378143984       -0.21905126413634        1.32882022928362
H           -0.71588667008473        0.51466234422275        2.51459371039956
H            0.72696204953135        1.40417113761049        0.65671566813044
H            1.57169089154317       -0.33848984516679        2.24357207124800
H            0.79975661716137       -1.59983058418283        1.26690208911748
H            2.12711767453654       -0.64018981025731        0.59214971852715
H            0.48338923958376        0.10425253971348       -2.49320405526109
