27
 energy: -40.045259284738 gnorm: 0.000036702528 xtb: 6.7.1 (edcfbbe)
N           -0.44758861657575        1.40058353935638       -0.90824263166279
C            0.21935398457672        2.42407297041257       -1.74170427972077
C           -0.70666690439661        2.59407405088907       -3.01978280349491
O           -1.70758009949133        1.84167387863888       -3.01026802260821
C            1.63919584247877        2.04255931739920       -2.14648123983578
C            1.69716281594096        0.76024599567192       -2.98277235343390
C            3.08280158135681        0.55181757360334       -3.59244375769952
N            4.05939612992436        0.31367097608738       -2.54688505019848
C            5.32969271823503        0.70634090925184       -2.52715392733590
N            6.07759575510660        0.40367822242749       -1.46844215967269
N            5.86543594925328        1.39981913764125       -3.52401890457477
O           -0.36529525729402        3.41946005852484       -3.86878887091966
H            0.12883489166854        0.57063155733556       -0.75795423151242
H           -1.28098951188808        1.16403247749455       -1.53789697184549
H            0.23051338414990        3.39214982167252       -1.23931990561827
H            2.26503382122889        1.95786085474666       -1.25755125602187
H            2.01066897219747        2.87227220730016       -2.75007040010029
H            0.97406354598445        0.84040386773149       -3.79667079283668
H            1.43341202543432       -0.11704057100100       -2.39120724006607
H            3.05208766995138       -0.29858791068080       -4.28160673811508
H            3.34624547213949        1.44663049595805       -4.15611918990484
H            3.74987088159465       -0.29826122116490       -1.80539838102174
H            7.04363930771130        0.67858750193133       -1.42751118485396
H            5.70331908589301       -0.11707369979217       -0.69469645714094
H            5.34047870353195        1.62376904922590       -4.35049693063340
H            6.81479290580540        1.72550210712070       -3.46656609558117
H           -0.78709233888860        1.75882355396828       -0.01456429263626
