26
 energy: -39.832307925361 gnorm: 0.000030200665 xtb: 6.7.1 (edcfbbe)
N           -0.46795607776505        1.33092926310532       -0.89239165601512
C            0.09254304984673        2.40991724847150       -1.73377848135206
C           -0.85149856533199        2.48111419015143       -3.00700104432984
O           -1.75763904502366        1.61716268668110       -2.99877357398989
C            1.53798929226602        2.15405927151669       -2.14735262171241
C            1.70294324763680        0.90664202303240       -3.01755519158218
C            3.13603288175811        0.77022447385506       -3.52872904573587
N            4.04924421498746        0.55981341925762       -2.42487726273398
C            5.41180993938456        0.75301298331014       -2.53732580719521
N            6.12860671299590        0.20119803851080       -1.50068990042721
N            6.05017752877236        1.36343221314922       -3.46004164553803
O           -0.61918123180257        3.34860726727194       -3.85011453749506
H            0.19548606433557        0.56856325483480       -0.74292810549068
H           -1.27188968803612        1.00713197562826       -1.52408154179066
H            0.02478320012287        3.37654000635247       -1.23380017483998
H            2.17754667326951        2.08315426130259       -1.26674977221488
H            1.85900668497364        3.02163585954406       -2.72617241789616
H            1.03648901966392        0.98217903814351       -3.87924408310940
H            1.44296025436222       -0.00120351866866       -2.47112234513587
H            3.19054472184119       -0.05165294407993       -4.25906369866822
H            3.42150178027837        1.69248157591680       -4.04254457856712
H            3.79545305250336       -0.21838906408571       -1.83191720130167
H            7.08517095090175        0.51645636175432       -1.47671808271647
H            5.67086902693478        0.18376080544936       -0.60321784481594
H            5.47397208305780        1.66682712068476       -4.23651000972830
H           -0.83457306760736        1.65914278468582        0.00211247519091
