26
 energy: -39.830372777526 gnorm: 0.000085465604 xtb: 6.7.1 (edcfbbe)
N           -0.46041834754973        1.29136081791836       -0.90308382862898
C            0.06248933761528        2.37123445630755       -1.71757630710777
C           -0.81899904162251        2.56566641446006       -2.93418650863321
O           -1.46075272820444        1.68339603600390       -3.46316234766479
C            1.51754918533829        2.18122757812363       -2.21897578486038
C            1.70757230857545        0.91042545813448       -3.04573068574139
C            3.14677609984489        0.76590305590010       -3.53455538759693
N            4.04959743202667        0.60732895285489       -2.41437040805991
C            5.41963773790719        0.70093862155198       -2.54703106599578
N            6.11284377783788        0.22139072298952       -1.46019187058466
N            6.08153284378271        1.16682681787605       -3.53557121055379
O           -0.77736583136395        3.80160101446178       -3.39350627792881
H            0.27226398607690        0.90994183074753       -0.31665429310338
H           -0.81322595928266        0.55353400268810       -1.50399285328230
H            0.02983506236648        3.29789956316513       -1.13199329225001
H            2.17532642099178        2.14870298961130       -1.34952242557283
H            1.79158091409457        3.05317579001814       -2.81499454708989
H            1.04653375686502        0.92547655836987       -3.91441527886800
H            1.44600637329846        0.03354303100579       -2.44938821047157
H            3.21364029165381       -0.08678905098185       -4.22816922653993
H            3.43553132644423        1.66928016236168       -4.08021259741729
H            3.74051335007114       -0.06984793279693       -1.73133147401603
H            7.08517104215628        0.48540297110095       -1.46799444159179
H            5.65899940617318        0.31597890966735       -0.56565808046806
H            5.51087845587071        1.41677545126374       -4.33476258920713
H           -1.31855204494228        3.92820895829654       -4.19823527195365
