27
 energy: -40.042196877074 gnorm: 0.000046673173 xtb: 6.7.1 (edcfbbe)
N           -0.45161603599606        1.30282470782353       -0.90214625309668
C            0.10397061374981        2.36697318140470       -1.71539448952605
C           -0.77482024251371        2.58933277127877       -2.93027188796864
O           -1.48088583844588        1.73835205360932       -3.42858459677284
C            1.55667599750731        2.14168482910267       -2.20770519629830
C            1.71522510506806        0.86321609348303       -3.03308388166622
C            3.13546927456077        0.70590811422801       -3.57061615931970
N            4.06412045461700        0.48026784257383       -2.47846126398202
C            5.38134522413230        0.65430073267603       -2.52954461562111
N            6.11030202509339        0.41690151281853       -1.44215168198722
N            5.97810876661810        1.07076741115395       -3.63987011407369
O           -0.64985918185565        3.80673099287249       -3.42426549561065
H            0.26831524801100        0.86076042195992       -0.34494059124053
H           -0.88889466252605        0.60591655332513       -1.49499136360046
H            0.09003924160661        3.29593913094157       -1.13101500698076
H            2.19842605927027        2.10824805180881       -1.32672188403271
H            1.84145513229395        3.00947353751018       -2.80427670614884
H            1.02500609436045        0.88670308266885       -3.87830934629881
H            1.45218990863468       -0.00835209519089       -2.43046637183189
H            3.16166987473394       -0.13512422725493       -4.27201101452727
H            3.40988742658393        1.62132316744168       -4.09963880290410
H            3.67107090768414        0.07120776301464       -1.64418236112416
H            7.10743074193383        0.54508852504059       -1.45441710462468
H            5.68337506106041        0.12615759828268       -0.58013756303558
H            5.46075404190268        1.21381687289811       -4.48877078049311
H            6.97068987711708        1.22973132621016       -3.65692125461732
H           -1.19649594787546        3.95538935539366       -4.22039639765999
