17
 energy: -30.724906625128 gnorm: 0.000045795028 xtb: 6.7.1 (edcfbbe)
N           -0.30175946605604        1.66990212484085       -0.11666687459972
C           -0.39760380781894        0.21844229609844       -0.36213335775001
C           -1.86359390018680       -0.21816311724225        0.06967501228538
O           -2.45529290973384        0.64319419856046        0.74815563425821
C            0.59172809207473       -0.54149352734679        0.52733014095608
C            2.00909155359742       -0.02027861465300        0.37005474577388
O            2.24718419692240        1.19055035708377        0.42033055478131
N            2.96412764620045       -0.92413543542800        0.19373679492442
O           -2.24326504083035       -1.33935885434841       -0.27728174812476
H           -0.48387346076947        2.22138397567598       -0.95638814816062
H           -1.07932585877755        1.83980466669680        0.56750085505246
H           -0.23875250335697       -0.03292559581680       -1.41056565187675
H            0.30062582793071       -0.39898103286668        1.57214358217889
H            0.51809013327089       -1.60276488607020        0.29981058493821
H            2.76044311077733       -1.90840855085152        0.16264179449460
H            3.92171900785544       -0.61634491123130        0.11161342222993
H            0.65575020959334        1.88498570450115        0.25265350433302
