17
 energy: -30.717781701340 gnorm: 0.000047748246 xtb: 6.7.1 (edcfbbe)
N           -0.15863796527372        1.62903210248154        0.42182772402554
C           -0.42433582574831        0.35560309612718       -0.21931655540803
C           -1.87774040602053       -0.08292133302109       -0.06694049879490
O           -2.70610171475440        0.56909514208901        0.53454189191685
C            0.52293459728688       -0.72253435559062        0.33399870328374
C            1.90332078140153       -0.54671250750506       -0.28224097006327
O            2.05932924880593       -0.45569440754989       -1.49500829784038
N            2.92465814060443       -0.53520447955738        0.57710478461577
O           -2.14808916575418       -1.23241687549877       -0.65269848752756
H           -0.62649962708136        2.37597356044539       -0.07811693150217
H           -0.54814603368417        1.61669886149538        1.36045557099994
H           -0.21910212926061        0.44288231132345       -1.29437429855903
H            0.56286257058659       -0.65681048132545        1.41910939273011
H            0.15414476757133       -1.70450406293357        0.03400332234215
H            2.77954957684881       -0.55461519754425        1.57128412369687
H            3.85788889050203       -0.40775127030822        0.21873166368658
H           -3.08303672010014       -1.50313247752333       -0.55336904919346
