16
 energy: -31.355748897819 gnorm: 0.000058627585 xtb: 6.7.1 (edcfbbe)
N           -0.27720254046567        1.73187926577096        0.26861571403031
C           -0.47659534199429        0.39597807638219       -0.25601656616692
C           -1.90513848031048       -0.10949220028621       -0.05876108253591
O           -2.77315631635408        0.55042660016866        0.47182380488852
C            0.52596209117236       -0.57959169947388        0.37833448753430
C            1.90648421408024       -0.36721842129943       -0.19567905089638
O            2.13837440897040       -0.14984375996750       -1.36352673457807
O            2.84958945968213       -0.47643889467277        0.71972119726480
O           -2.10317050190102       -1.32262948776109       -0.53341200829990
H           -0.85765325967725        2.39232837918269       -0.23547298009870
H           -0.57307486757190        1.76123724581616        1.23992811942922
H           -0.28277497945116        0.41094270911661       -1.33673262793450
H            0.56903604551995       -0.44922929369977        1.45865736032308
H            0.22961831664728       -1.60413937814665        0.14524998880767
H            3.75013171111308       -0.35104214441422        0.36019349130802
H           -3.02342666601280       -1.63416428448881       -0.41792240273147
