16
 energy: -31.360010824701 gnorm: 0.000063117185 xtb: 6.7.1 (edcfbbe)
N           -1.59588719503871        0.01006198359606        1.19742736403166
C           -0.40237721038440        0.32591346681495        0.39128560558176
C           -0.93979383994737        0.66797526531268       -1.06283945381453
O           -2.18307253019229        0.73130743781481       -1.13072174620160
C            0.59024679235987       -0.82472599986355        0.28793721905019
C            1.68772770904846       -0.45811791072235       -0.69192090192752
O            2.05333152072612       -1.17128400515844       -1.60069204168236
O            2.29577868543638        0.66969937925377       -0.36156328370099
O           -0.09269144967715        0.82450517744546       -1.94497752261112
H           -1.68326481746606        0.57211386374313        2.04661758587946
H           -1.65792564533913       -0.98568168964247        1.42626015419731
H            0.10612064549693        1.21804465025578        0.75977141132590
H            0.11132921050644       -1.73154721117267       -0.08176296717281
H            1.07045991294825       -1.01232461364018        1.25006328176856
H            3.00662276793181        0.90627013036572       -0.98514561658571
H           -2.36660455640966        0.25779007559732        0.50026091186109
