15
 energy: -31.158399363908 gnorm: 0.000046394709 xtb: 6.7.1 (edcfbbe)
N           -0.43194515991178        1.83622164590551        0.30872503598684
C           -0.46223279967850        0.47837156911180       -0.20441781619428
C           -1.84200104990921       -0.14157189033150       -0.08892209271844
O           -2.74389152121102        0.34712692430090        0.56441596896902
C            0.54452956940950       -0.41571440045235        0.52923950961308
C            1.91234729167336       -0.51563029984902       -0.22230495638412
O            1.91678538109060       -0.30682801377294       -1.44834533843926
O            2.88787549687555       -0.84395075754542        0.48017795034718
O           -1.98475576916570       -1.27414875817669       -0.75403053199739
H           -1.04554534760133        2.41934899291139       -0.25069566346604
H           -0.80626358185960        1.83350255647259        1.25383824483290
H           -0.15556750419021        0.47937892097170       -1.26043158652830
H            0.73721748619705       -0.04756985792131        1.53615345734309
H            0.17977033972638       -1.44312308905774        0.59454596551117
H           -2.87831755697873       -1.66139100863914       -0.64293488237613
