15
 energy: -31.173074552881 gnorm: 0.000063771140 xtb: 6.7.1 (edcfbbe)
N           -1.01345686008531        0.98567215160086        0.43730633257468
C           -0.43459818411956       -0.30893223041919        0.02416334151743
C           -1.29114696214626       -1.43924998919165        0.71869035479428
O           -1.99687782481085       -1.02600024312884        1.66097684646100
C            0.99684824397827       -0.42506972655526        0.55059148809136
C            1.88576468439720        0.79851515413832        0.19534622378123
O            1.38015898009404        1.93499094819774        0.39999129961075
O            3.02679200649030        0.58717510716499       -0.23245002731114
O           -1.17153819693121       -2.59394721280724        0.29541214419118
H           -1.66686182041661        1.36233522072407       -0.24853528958067
H           -0.17754354378285        1.64378202924061        0.57310366230225
H           -0.44764631860335       -0.43815218436383       -1.05830421526898
H            1.46588594541539       -1.32963428629123        0.16533586827086
H            0.97408244513409       -0.49259054935015        1.64282207228995
H           -1.52984012489167        0.74111704575552        1.31263410780898
