14
 energy: -24.301471366860 gnorm: 0.000057930551 xtb: 6.7.1 (edcfbbe)
N            1.55205167846931        0.42993377937808       -0.12854674274016
C            0.11175079360639        0.50093073645991        0.17736718972258
C           -0.06007000907575       -0.10532549487852        1.64393513549337
O            0.97454375782375       -0.65623922987829        2.06428022129285
C           -0.68611961484794       -0.37657675170598       -0.76612310613619
S           -0.40709845131301        0.16836759155480       -2.50990621589510
O           -1.16397124997262        0.01063634243963        2.17546461107015
H            1.90114900926502       -0.20447334434276        0.64631189424564
H            1.71735706566624        0.03769500380117       -1.06412519094582
H           -0.26779714755742        1.52239005066263        0.16411160197986
H           -0.37232299751756       -1.41470866372254       -0.68189918267996
H           -1.74738108811085       -0.30009059275508       -0.53429848283699
H           -0.41358277327061       -1.03570786812957       -3.06097396024853
H            2.01849039242388        1.33651149934420       -0.05376256529440
