14
 energy: -24.296886326584 gnorm: 0.000074943139 xtb: 6.7.1 (edcfbbe)
N            1.61529471130541        0.54609776349728       -0.05407437370271
C            0.18972452747479        0.44862430380615        0.16441691099098
C           -0.07088168568119       -0.04501390280752        1.58003128414140
O            0.61150231718750       -0.87582512353223        2.13570353890306
C           -0.54846139241771       -0.54127922032319       -0.75902144924634
S           -0.43320262165346        0.04740664094816       -2.49627238247243
O           -1.15002045259729        0.48778315250802        2.11071074479376
H            2.06893424428682       -0.30163954863049        0.27235707350521
H            1.80969937048540        0.65469204992908       -1.04408701632109
H           -0.25680866744704        1.44250641890761        0.04710651982026
H           -0.08651038732003       -1.52719569410447       -0.69931069285268
H           -1.60311731836736       -0.59595983293215       -0.49236995600404
H           -1.04846892855180       -0.99805470624350       -3.03168153240405
H           -1.33968686351430        0.15886026985036        3.01349409369895
