13
 energy: -24.095859352207 gnorm: 0.000078135062 xtb: 6.7.1 (edcfbbe)
N            1.59747355766721        0.58492073763238       -0.09427157151663
C            0.18207925307696        0.48396260511065        0.19937116722856
C           -0.05311370311361       -0.03838304614936        1.58365244754162
O            0.60510984461353       -0.91762606057955        2.10793403496167
C           -0.56790007163321       -0.51074806324685       -0.73847964358360
S           -0.28275924121199       -0.12708850303377       -2.47445221791662
O           -1.12063147680685        0.48680518431161        2.16753935202120
H            2.04477194049321       -0.28054908579667        0.20252937282043
H            1.67814625218993        0.62363856504190       -1.11371792686164
H           -0.27711828621178        1.47051701737170        0.07757952437011
H           -0.20777739364697       -1.52992502198758       -0.54050148819351
H           -1.64395521009713       -0.47105648120159       -0.53311725742530
H           -1.29231258127547        0.09153547905558        3.04793212958227
