13
 energy: -24.104244261848 gnorm: 0.000069296430 xtb: 6.7.1 (edcfbbe)
N            1.55957540202562        0.52644848399572       -0.09152465969209
C            0.12976461259228        0.51269157119753        0.24148259642905
C           -0.05090205922978       -0.15066998426408        1.65043023048192
O            0.95613847339123       -0.75729767626098        2.06682517931441
C           -0.59660447078597       -0.38531248150249       -0.78130735073638
S            0.20657607342361       -0.28473774271383       -2.40199197570094
O           -1.15812368707617       -0.03962383829326        2.19522266202162
H            1.97896162480511       -0.17635010999795        0.55002597937305
H            1.55043305811062        0.21472182196784       -1.15003823020673
H           -0.30587800029264        1.51139215584626        0.22476704241493
H           -0.56668799898246       -1.43243919609004       -0.45075730594676
H           -1.64663927285103       -0.09462819697862       -0.86510198034995
H            2.00440164131265        1.43414900697678        0.02879817980302
