20
 energy: -33.880915802346 gnorm: 0.000038625071 xtb: 6.7.1 (edcfbbe)
N           -1.60086992378655       -1.37754138190237       -1.02017834722542
C           -1.42015489645156       -0.83434786665448        0.31225171724011
C           -2.07833365400899        0.52209178486796        0.54534757859380
O           -2.53896887360400        0.87688500127524        1.61022029016012
C            0.07779681755669       -0.70226312442337        0.65647012090664
C            0.87877257369719        0.09165350707292       -0.37486529751834
C            2.20424330118942        0.55330031674407        0.20851005995942
O            2.32581718515718        0.90857417776393        1.37701774745342
N            3.22801805874884        0.57568985683966       -0.65249739696277
O           -2.09394533908543        1.29246894505143       -0.53066837646341
H           -1.31769746046137       -0.69195224227228       -1.71188030165580
H           -2.57816263243313       -1.59012105430718       -1.18110709368307
H           -1.86555909194639       -1.52399528618995        1.03752244604257
H            0.17324919845306       -0.21613658212928        1.63070208143312
H            0.49243074989534       -1.70653915447160        0.73576026304700
H            1.04700620798470       -0.50843823567186       -1.26634996797626
H            0.33277727919342        0.99563834040752       -0.65642677800258
H            3.12237960374313        0.28059614669063       -1.60758848116247
H            4.12796371237539        0.89583734878690       -0.33215128385154
H           -2.51676836492045        2.15859672820550       -0.36967167556462
