20
 energy: -33.884748776534 gnorm: 0.000078486334 xtb: 6.7.1 (edcfbbe)
N            1.74763571368460       -0.43713286977016        1.41414803040986
C            0.64075690457050        0.43771052044321        0.97828384036353
C           -0.44336515693885        0.35256846915925        2.13877496252691
O           -0.08062683240657       -0.36143984518850        3.09867458904665
C            0.02546077715843        0.00261577364238       -0.34235673164967
C            0.92832879483808        0.30808704075004       -1.54520657809178
C            0.28035282915238       -0.25325708823382       -2.79762414018308
O            0.43754698979066       -1.42126725402775       -3.14079312815509
N           -0.48227212650793        0.60242906280956       -3.48539667180686
O           -1.49206285673566        0.97917827102250        1.98834252975853
H            1.37477554478471       -0.74085904738581        2.37295794591940
H            1.84551629636346       -1.25898651588609        0.81298702064503
H            0.95934592153589        1.47901690526561        0.91833663173823
H           -0.19694632047562       -1.06657998578661       -0.31148170462199
H           -0.92768972741616        0.52519804700151       -0.44312454970460
H            1.07658970617761        1.38206160525739       -1.64094080931205
H            1.89316169584102       -0.18489789123168       -1.43082924035604
H           -0.97948734614667        0.27189515869312       -4.29674907353272
H           -0.64231668076002        1.54131415686555       -3.16389582671397
H            2.64495829930888        0.03963203679784        1.51265906486573
