19
 energy: -34.520119140254 gnorm: 0.000058874194 xtb: 6.7.1 (edcfbbe)
N            1.32726379441526        1.95603952531710       -0.00029310573338
C            1.14770796510344        0.58798773780500        0.44038072132892
C            2.33308418834758       -0.24050418489712       -0.01875572960747
O            2.92990004446088       -0.05192393812738       -1.05604411268468
C           -0.10605597250071       -0.13437606086027       -0.11336812478046
C           -1.40199765310121        0.45129760427744        0.43736753117531
C           -2.60749729647525       -0.32068161616324       -0.03261488969756
O           -2.57413137609126       -1.36492794807552       -0.64571322539994
O           -3.73980019441708        0.27553043339222        0.30619829933077
O            2.61135761784057       -1.22864330096671        0.80762286620192
H            1.65647327351741        1.95969674165042       -0.96054417564286
H            0.45020020208596        2.46048874392544        0.04025096901436
H            1.11505015189897        0.56876765908780        1.53490634024952
H           -0.10288563177671       -0.07036459810743       -1.20425905990544
H           -0.05758530277203       -1.19119772828625        0.15468583150153
H           -1.40070681370995        0.42140864131759        1.52928283270454
H           -1.54346425155959        1.49119513730121        0.13914310724634
H           -4.53129683729069       -0.21679249983371        0.01322059634522
H            3.34840925969007       -1.79099108987342        0.49553111177094
