19
 energy: -34.522974153081 gnorm: 0.000088831922 xtb: 6.7.1 (edcfbbe)
N            1.31269206680872        1.89252905337471       -0.15082544116849
C            1.10910320509127        0.54605996372525        0.42252398473563
C            2.39606756359852       -0.28611443452865       -0.00142728226213
O            3.22092049181031        0.38700823319287       -0.65811543233568
C           -0.14740250904661       -0.13425997895795       -0.09558755054726
C           -1.42756608672831        0.45542990257076        0.49432364138635
C           -2.65392387758595       -0.28730275091998        0.03125352300217
O           -2.65273646848659       -1.32778668656398       -0.58875107536329
O           -3.76845273653145        0.33789555489905        0.38285213268137
O            2.46022244099444       -1.46351246046011        0.35041254395945
H            2.27830557453782        1.75252284916250       -0.60017803753238
H            0.62972615379441        2.11004161080507       -0.87954430268760
H            1.09825351978758        0.57683042609144        1.51248890958127
H           -0.17639648450677       -0.08356630779033       -1.18568605069439
H           -0.08312051619752       -1.19348553274537        0.16186082557252
H           -1.41077250273185        0.38626758498449        1.58422816681463
H           -1.56690754246400        1.50450790915323        0.23201608722124
H           -4.57507227092487       -0.13066001268504        0.09498237357028
H            1.34661419351200        2.64071602174171        0.54275136141236
