18
 energy: -34.325806953805 gnorm: 0.000063432198 xtb: 6.7.1 (edcfbbe)
N            1.34675834096056        1.95828915507860        0.07139773298289
C            1.16742247880911        0.57246773399668        0.46197976471151
C            2.31585821181760       -0.25554493064498       -0.07030066871940
O            2.82987093716548       -0.08570550008259       -1.15527080177424
C           -0.11051142796467       -0.10413763975231       -0.09601556024966
C           -1.39481185369053        0.50978226242156        0.43905882188072
C           -2.63513735384764       -0.33002315893694        0.00716004159760
O           -2.53624866114230       -1.57139465486835        0.06403372388396
O           -3.64363626115711        0.31273478149865       -0.35042514729373
O            2.66872644643675       -1.22900948706338        0.74544342574761
H            1.57288126960282        1.98887742738849       -0.91909257144538
H            0.47386369348803        2.45751091913238        0.20450543063638
H            1.15377335586837        0.50850716369360        1.55455648329163
H           -0.10253338228450       -0.03704325402401       -1.18842650838062
H           -0.11653462509870       -1.16390522086206        0.17169209421659
H           -1.38435960821912        0.51336429673720        1.53185726632081
H           -1.55654257367467        1.52819193843377        0.08225359263473
H            3.37618752266318       -1.79597639875694        0.37457433232989
