18
 energy: -34.327038427193 gnorm: 0.000049229342 xtb: 6.7.1 (edcfbbe)
N            1.27617661281456        1.83473054503785       -0.28661312770066
C            1.12903993113061        0.56965278569768        0.46224455870629
C            2.38967889380878       -0.30105542606805        0.05655836090092
O            3.13072596747436        0.26508087025931       -0.77808935000730
C           -0.14814917485814       -0.17127768724224        0.08870884252938
C           -1.41481146537727        0.47209491274322        0.64495435135065
C           -2.66412097958834       -0.11408334910448       -0.07640454066739
O           -2.67422304910246       -0.03526025050447       -1.32288941531568
O           -3.56222501865938       -0.60226619177151        0.63871136344920
O            2.52575544152705       -1.40642052614780        0.58038652472361
H            2.18619002228180        1.61885500346363       -0.81927712837673
H            0.50541568790917        1.96518134087968       -0.94639053082181
H            1.16013012076668        0.72924111190317        1.54028648993653
H           -0.24177018684522       -0.22944709974914       -1.00024677642465
H           -0.06929711689639       -1.19683241264458        0.45634397958889
H           -1.52270214951894        0.29455188499021        1.71479281305755
H           -1.42899714908931        1.54642908692640        0.45311791661186
H            1.38373916902081        2.65892252088673        0.30536771475894
