10
 energy: -17.892115448306 gnorm: 0.000088618020 xtb: 6.7.1 (edcfbbe)
N            1.91911158876395        0.08149041924463       -0.10902173797502
C            0.77779070813481       -0.84615301923786       -0.13121648214094
C           -0.50166189886298        0.02895477524400        0.16949081026557
O           -0.23861451379452        1.23977146383914        0.34689001500732
O           -1.59520404655422       -0.53885282236607        0.20085172637721
H            1.39897251795320        0.99438604287698        0.11155226964760
H            2.59323544477042       -0.12408601397640        0.62996729739249
H            0.63656519508959       -1.32215390115957       -1.09785665675378
H            0.84167988941170       -1.61505015902064        0.63409825148151
H            2.39361060001453        0.16059690023858       -1.00979931453927
