10
 energy: -17.887900424489 gnorm: 0.000078033478 xtb: 6.7.1 (edcfbbe)
N           -1.11188349051008        0.74919891789488        0.68799732593791
C           -0.59393034267795       -0.46988186263085        0.09643957751689
C            0.91563559432755       -0.49386620127088        0.03209322907246
O            1.56377399873079       -1.51789792311771       -0.04173889071884
O            1.46616480338544        0.70372486951996        0.01095524627091
H           -2.11874309995201        0.77704213485967        0.58285528255232
H           -0.71969369836661        1.55755884570128        0.21813765101958
H           -0.92568151630061       -0.64771451647627       -0.94337049211871
H           -0.91746910017688       -1.32851915879138        0.69073717792676
H            2.44183138440192        0.67035716071191       -0.03554003494218
