20
 energy: -34.364906953514 gnorm: 0.000034833174 xtb: 6.7.1 (edcfbbe)
N           -0.09491809496557       -1.55680501227323        0.02721791258159
C            1.24140908029533       -1.70782574677942        0.58239149439204
C            1.36600535353039       -3.16987733358755        0.99355574044063
O            1.04661346314329       -3.59819606965662        2.08261566234905
C            1.53427349839466       -0.78622958643150        1.79131255528774
C            2.90512685866165       -0.99548258748751        2.32524138256953
N            3.20071299177534       -1.97008531033601        3.24157464914541
C            4.09881184193846       -0.38093384972633        2.05835105115033
C            4.52948474880785       -1.90250371944169        3.47622270247887
N            5.10046174974985       -0.95365729328714        2.78280076871938
O            1.83741674760792       -3.92419979609900        0.02968568115151
H           -0.21767226906717       -0.61306578902233       -0.32062226642466
H           -0.78989372584497       -1.71898500677691        0.74856786761127
H            1.96427434322484       -1.52371580370073       -0.21821811616872
H            1.42334072980761        0.25091374088947        1.47359583079940
H            0.80101877696890       -1.00302347715394        2.57231289868164
H            2.53822738868270       -2.63257721723682        3.61580389486413
H            4.30086242712700        0.43875502813171        1.39904129426437
H            5.04391705443480       -2.54911225604301        4.15730352014973
H            1.87345833572607       -4.87556401216784        0.25815431017695
