20
 energy: -34.370413546361 gnorm: 0.000056513473 xtb: 6.7.1 (edcfbbe)
N            0.03816379992072       -1.39390689134115       -0.04915277603561
C            1.19823508315869       -1.86108060190920        0.74137254259902
C            0.79229892795483       -3.31948777906783        1.23161274935950
O           -0.32541368611053       -3.68732968968218        0.81876167157537
C            1.51134139201445       -0.90632305423559        1.90315976277116
C            2.93371094519633       -0.98751284179371        2.34218825098047
N            3.53768711715798       -2.16658132495446        2.67816055839013
C            3.88957779595873       -0.02395342865830        2.52000637940874
C            4.80402062352786       -1.87154727275111        3.03168100885048
N            5.05122516744073       -0.58841529887751        2.95266323200324
O            1.58545245855514       -3.94893278394613        1.93919711520836
H            0.26391289723183       -1.16385793714358       -1.01839634160582
H           -0.44280518455756       -0.60749768374601        0.39499451763541
H            2.08041019172898       -1.97012592289767        0.10759557314270
H            1.33540705368251        0.12376579050945        1.59002721658002
H            0.85806853440047       -1.13391664722098        2.75086209111637
H            3.06894843656154       -3.06797678335099        2.60417396433840
H            3.82143914288314        1.03464292959903        2.37172863133245
H            5.51813553978909       -2.60795438611467        3.34041350927945
H           -0.59018218173509       -2.25977343315042       -0.00345262982481
