20
 energy: -34.366386302741 gnorm: 0.000035957771 xtb: 6.7.1 (edcfbbe)
N           -2.73270552823805       -0.32025939300713        0.31907770071458
C           -1.34339594677793        0.17576960678188        0.21681357345559
C           -1.34435590988650        1.15696036696621       -1.02645368520438
O           -2.43094305195573        1.15394852235583       -1.65253031986456
C           -0.35410889576785       -0.97326010357980       -0.00403797962749
C            1.04440451135003       -0.46310925079623        0.07762788238757
N            1.57604818455885       -0.05512146849809        1.26997871174168
C            1.96398190730909       -0.28342447886317       -0.91749120411240
C            2.78186606093614        0.36281273269408        0.99470420168995
N            3.07252555347748        0.24123196332332       -0.31811427829581
O           -0.32795210593114        1.80977057294249       -1.26345795249288
H           -3.22431074567952        0.02188375506686        1.14595415160419
H           -2.78932278830025       -1.33980343591684        0.27017374424726
H           -1.03895902694341        0.73823312690563        1.09905447335108
H           -0.51284170835876       -1.42555214012562       -0.98417146037639
H           -0.49351932874252       -1.71825210190032        0.78205377856509
H            1.90727240447970       -0.46801802154767       -1.96934378540241
H            3.46899926341880        0.75013341702073        1.71904279109378
H            3.92381027922955        0.51473837186897       -0.78092957977666
H           -3.14649867688264        0.12131518399161       -0.56753345892649
