20
 energy: -34.364519094010 gnorm: 0.000059821270 xtb: 6.7.1 (edcfbbe)
N           -0.14624867250286       -1.34281509166115        0.00097459591116
C            1.17145750957651       -1.59640228141202        0.54981324142122
C            1.30007920778525       -3.07186958389093        0.86934720889310
O            0.38869462271313       -3.75089507934647        1.28988067767425
C            1.47305685245673       -0.81905005016149        1.86247860570492
C            2.86653858041097       -1.04631391742960        2.33543914026996
N            3.13879904564457       -1.78577084969979        3.45201291588356
C            4.04219954973635       -0.62299269647117        1.77298383409484
C            4.44132449035411       -1.80544128824330        3.55708901900501
N            5.03986414938355       -1.11461100505985        2.56429590709271
O            2.51592375219953       -3.54060043961200        0.66861564144173
H           -0.36854675976409       -0.35635851990394        0.07263637470904
H           -0.83513873672813       -1.86215998800191        0.53682467406222
H            1.92724769917581       -1.33332797333099       -0.19789817225475
H            1.31560373117180        0.24345846494457        1.66342897177551
H            0.77809754208832       -1.14566235005904        2.63834111636716
H            4.23471611138492       -0.02963613459862        0.90465990300909
H            4.97475601553159       -2.30604014235100        4.33892995279763
H            6.02883507384194       -0.98483333117055        2.42390673542270
H            2.58968106844332       -4.49086700264504        0.88913320535229
