21
 energy: -34.558290324899 gnorm: 0.000032875109 xtb: 6.7.1 (edcfbbe)
N           -0.14224924443108       -0.99127926092676        0.21546458130276
C            1.13834084332616       -1.51697733126103        0.63791658788527
C            1.20140481162006       -3.04453937435273        0.60616788903620
O            0.31764175590925       -3.73428817698587        0.14346264679522
C            1.47584880662959       -0.96545887543289        2.04179918368211
C            2.90899282506920       -1.12823855115358        2.38851110760255
N            3.35313343789905       -1.91139359065595        3.41603209612203
C            4.02842215627326       -0.59049645074030        1.81273897330835
C            4.67980367890672       -1.86273466490712        3.46772092474295
N            5.10392563929645       -1.06271303060925        2.50017490662372
O            2.31365482205610       -3.53704501339914        1.11949856135024
H           -0.35192554318155       -1.28757897548731       -0.73071257925946
H           -0.88319705928026       -1.35348665550585        0.80700062702410
H            1.89448333605393       -1.16234287549234       -0.07300896735812
H            1.21481603836911        0.09323059484108        2.01787600126256
H            0.84512690518717       -1.45530763582863        2.78318797506733
H            2.76019956428223       -2.45060189976991        4.03378704426444
H            4.11678846662805        0.08373770183885        0.98721396622910
H            5.29863100904700       -2.37884205073868        4.17529798625513
H            6.06993828083257       -0.83240454583766        2.30066309143440
H            2.36115769837281       -4.51143727724239        1.05309602689783
