21
 energy: -34.565168320821 gnorm: 0.000088445801 xtb: 6.7.1 (edcfbbe)
N           -0.00657568333298       -1.42479632387552       -0.01082830014096
C            1.18926159173078       -1.86713091365454        0.73487674912734
C            0.81134149063197       -3.31539691108328        1.28853890734371
O           -0.29824700421681       -3.72152972289868        0.90590728892306
C            1.55881052397248       -0.85558463530649        1.83169230432391
C            2.97597399178733       -0.97073801326683        2.27046417605175
N            3.54407087961890       -2.16982685437527        2.58866376117765
C            3.93788800277243       -0.01908425410741        2.46448820565240
C            4.79715677997269       -1.97044079140116        2.96217835337156
N            5.05592356799436       -0.66822701102404        2.89565953256136
O            1.63387127949436       -3.89912671237497        2.00796106702577
H            0.17448184201038       -1.18059542021018       -0.98647086876192
H           -0.49749116228869       -0.65580262568858        0.45386025554264
H            2.03104098453202       -2.00575926808524        0.05289393563312
H            1.41316844681978        0.15730226436812        1.45504773062899
H            0.90800610564684       -1.00371361434195        2.69788422089179
H            3.00037283126263       -3.05161399674477        2.49621749212399
H            3.90030824849574        1.04163367925945        2.33223989152902
H            5.48504483111181       -2.73433393700343        3.26464834044670
H            5.93666467871686       -0.22583663211354        3.12637432051653
H           -0.61943124310803       -2.29519018826408        0.04227945918572
