22
 energy: -30.551980011567 gnorm: 0.000048162172 xtb: 6.7.1 (edcfbbe)
N           -1.92674338011526        0.28972122068298       -0.35736634477434
C           -0.46146714705739        0.49865142137379       -0.36493999109823
C            0.00448614890488       -0.11929369156415       -1.75607258847469
O           -0.91712868304401       -0.71953482356930       -2.35809450917999
C            0.21103703538699       -0.17136640803223        0.84598454027880
C           -0.34964658418728        0.39657693388979        2.16193965412551
C            1.72433549212867        0.03023899847311        0.79127330743298
C            0.13017049824097       -0.37788956668147        3.38591886618270
O            1.16306759889952        0.05312761631384       -2.13458412701410
H           -2.02941806834398       -0.27145941066217       -1.27294194375808
H           -2.23471305074542       -0.28570582475870        0.42903615443159
H           -0.20592741784076        1.55908206386600       -0.38009749091104
H            0.00533832509582       -1.24699014764345        0.79515068793537
H           -1.43971981814243        0.37047954684674        2.16679193517223
H           -0.04201114911756        1.43984903478291        2.25251301594898
H            1.97719739462722        1.06754176067752        0.99895977930217
H            2.22484131152527       -0.60514453445171        1.51502871705978
H            2.10465569471758       -0.21463993969386       -0.19678346410927
H           -0.35827446919588       -0.00053516455279        4.28091546885893
H           -0.10502735553331       -1.43523711090853        3.28603563208297
H            1.20294284821745       -0.27876026509077        3.52165986419715
H           -2.46781607009756        1.15323253528343       -0.40178100910883
