22
 energy: -30.551426281066 gnorm: 0.000095835385 xtb: 6.7.1 (edcfbbe)
N           -1.95712389586681        0.17693879999562       -0.41318540511234
C           -0.53317425881701        0.46392298203708       -0.33388036823589
C            0.09251601629558       -0.02818167034359       -1.62523501397158
O           -0.10355141050792       -1.13080567261214       -2.09085981103825
C            0.19984615877953       -0.20185429489854        0.86682572903008
C           -0.20656492870729        0.48640111988182        2.17598280392155
C            1.71399386158156       -0.14815075483369        0.67269820643586
C            0.06053893085043       -0.37512154267673        3.40551945643352
O            0.87920601892642        0.86351521428609       -2.19166284701047
H           -2.08321087197663       -0.78605869534617       -0.71091569209503
H           -2.38577236696342        0.27754694795273        0.50026532649278
H           -0.39675744640047        1.54930584069212       -0.27914304802906
H           -0.11591792022787       -1.25187550502442        0.89629103088364
H           -1.27191899684123        0.72644725856373        2.15085203544300
H            0.33813750065320        1.42849881865572        2.26079551797976
H            2.03161242070829        0.86869073535356        0.45275548197098
H            2.22279193422521       -0.48485679240588        1.57139517835583
H            2.02189872839428       -0.79387748187351       -0.14698396873204
H           -0.26203633393614        0.14586870668680        4.30337382652007
H           -0.48413168068224       -1.31454621409080        3.33914570175926
H            1.11878269305413       -0.60045389409687        3.50636137620229
H            1.27289139614673        0.55166149285170       -3.03140376749165
