22
 energy: -30.552773554637 gnorm: 0.000037481839 xtb: 6.7.1 (edcfbbe)
N           -1.78220827659857        0.63252669358516       -0.57800048109444
C           -0.34323655089492        0.46342644230029       -0.51603668861544
C            0.14344553218921       -0.13202660474157       -1.82044891536954
O           -0.50107190789859       -0.90459663008976       -2.49742968971567
C            0.17293769766236       -0.49351555445656        0.58957383683178
C           -0.10662988777213       -0.01788886385296        2.02005558878151
C            0.29575362521301       -1.11965361181299        3.00017563340575
C            0.64179428507798        1.27227675730920        2.34517821526275
O            1.37668309276921        0.23090357164032       -2.11852975617357
H           -2.19588367833142       -0.18833009087702       -1.00991001416391
H           -2.16438378950782        0.72510086625290        0.35590160226553
H            0.12467573695845        1.44481781209623       -0.39260649165461
H            1.25084233786870       -0.61242273561386        0.46166550740336
H           -0.29650204772719       -1.46958302495442        0.43500922423152
H           -1.18127117856289        0.16278985432292        2.13604464844562
H            0.07926821664118       -0.81560380057800        4.02108762896747
H           -0.24717188424636       -2.03914483302753        2.79368285568032
H            1.36095999919446       -1.32421315332634        2.92078851024153
H            1.70929198565582        1.14045337643771        2.18475678798961
H            0.29628284424636        2.09500277949522        1.72550508969322
H            0.48124351098108        1.54323674288330        3.38573704091744
H            1.70824007983504       -0.18553149934761       -2.93920371836276
