22
 energy: -30.555772962773 gnorm: 0.000057367145 xtb: 6.7.1 (edcfbbe)
N           -1.79220732849339        0.42642424516572       -0.58253639282906
C           -0.31782029048411        0.44126667073895       -0.47329341128994
C            0.20878052016684       -0.07953686344355       -1.87556920763543
O           -0.71226273553676       -0.35785386585227       -2.67683278836888
C            0.19337709742194       -0.46200591689091        0.63981085027836
C           -0.09048400051460        0.04934915331089        2.05987451644213
C            0.22245839529388       -1.05718991020500        3.06593984302406
C            0.73111947495975        1.29464931651652        2.38332374170569
O            1.42658322133685       -0.15562026635399       -2.04312701105836
H           -1.89531364717249        0.06356832178460       -1.58776831608568
H           -2.21761260747633       -0.23554711253645        0.07031407471622
H            0.06283452763344        1.45471872806130       -0.35021049056469
H            1.27110838597306       -0.57007004505109        0.49856927424243
H           -0.24321704768960       -1.45539088045089        0.51015156844440
H           -1.15165200965453        0.30122604590728        2.15399015588535
H            0.02478411017570       -0.71866747300960        4.07983916205989
H           -0.38240112119524       -1.94033802092580        2.87467005980547
H            1.27007156740517       -1.34198428522915        2.99867167139537
H            1.79314564173361        1.08178351674539        2.28255344756343
H            0.48819470781586        2.12056604307212        1.72070215127378
H            0.54207147529174        1.61503666235073        3.40485941809253
H           -2.22570649628883        1.34566939943894       -0.49018944689162
