24
 energy: -33.976661482753 gnorm: 0.000087831001 xtb: 6.7.1 (edcfbbe)
N            1.59138099903406        1.82414880192171        0.15016213992331
C            1.38947903601727        0.39385881070137        0.46364667067098
C            2.69953509630258       -0.33614670274787       -0.05472991247829
O            3.53972787781866        0.44917588981702       -0.54835788743861
C            0.15773998172200       -0.19140656029206       -0.21094520401249
C           -1.15248124143820        0.29184569531957        0.41244556222773
C           -2.35948225075677       -0.35546930120865       -0.26134178684560
C           -3.68339250455615        0.13278376959785        0.34512680599373
N           -4.87813390112523       -0.46007998885184       -0.23511500646758
O            2.76698110450763       -1.55892611215803        0.07543034778722
H            2.57281577777138        1.77800614716318       -0.28146259480839
H            0.92526084092096        2.16181299127876       -0.54808492587760
H            1.33787363957763        0.22811626291394        1.54050036168133
H            0.18167720738052        0.04422746517233       -1.27735386448817
H            0.23099004028891       -1.27767265051223       -0.12382399833725
H           -1.16142910688077        0.03998219067198        1.47431179171637
H           -1.24391563818671        1.37513048068149        0.32168170651144
H           -2.34948666271280       -0.12667665593951       -1.33066828736929
H           -2.29466387861843       -1.44205237034611       -0.15670527533465
H           -3.69617593908624       -0.08653766935137        1.41620515575590
H           -3.76550183307702        1.21606494232146        0.22140246558842
H           -4.89983331274218       -0.27717156067770       -1.23300957050664
H           -4.85262361616685       -1.46728304306297       -0.11526922826866
H            1.58725306460609        2.43363696402226        0.96864810161254
