25
 energy: -34.162030849545 gnorm: 0.000050121933 xtb: 6.7.1 (edcfbbe)
N            2.80742811588547        1.15406629971621        0.71191629662150
C            2.17759428300464       -0.09699697599969        0.34406362834583
C            3.02950125537497       -0.83706415642163       -0.67061945855475
O            3.10108280728919       -2.04708284829485       -0.73108250657081
C            0.76413451732251        0.01296508130784       -0.28739593365493
C           -0.26617589629680        0.53408408341347        0.71415535968530
C           -1.66662046366558        0.67263075139641        0.11375665651944
C           -2.30877898256218       -0.68192505740361       -0.17076287911352
N           -3.71184849475299       -0.50460248376117       -0.61901429475193
O            3.62355973404163       -0.03902958248781       -1.53615895267085
H            2.95240776056749        1.73181259328857       -0.10814504670457
H            2.22749383096042        1.66079489029093        1.36868261777897
H            2.11643499483967       -0.72740960392065        1.23830096464337
H            0.49216858978875       -0.98374025503345       -0.63608950510135
H            0.82474310207384        0.68093362872720       -1.15007349517673
H           -0.29549044697128       -0.13396558922984        1.57662059788642
H            0.05166888442594        1.51590540486981        1.06932996277066
H           -2.28018899145754        1.22190394839759        0.82907446131213
H           -1.59799784800897        1.26044463613079       -0.80232842902672
H           -1.75431158441663       -1.20777016917096       -0.94652107795679
H           -2.29640204166502       -1.28882383466710        0.73455238189743
H           -3.74188107494486        0.06658859187519       -1.47191364358483
H           -4.25862216296709       -0.02731396301603        0.10764543633280
H           -4.14797437177684       -1.41263779888441       -0.81551787719692
H            4.15806285386374       -0.52377340607293       -2.19422994939285
