24
 energy: -33.973264787587 gnorm: 0.000030883416 xtb: 6.7.1 (edcfbbe)
N            1.57335541656365        1.90366018741232        0.27643407920862
C            1.42736650981243        0.47238740885026        0.45232177042849
C            2.63720448120089       -0.22530897277630       -0.13509289500768
O            3.23216001869972        0.15930759638023       -1.11872076139356
C            0.19513200372144       -0.16514587309549       -0.24023750354883
C           -1.12288326758008        0.27917983613723        0.38987152133108
C           -2.31663051515474       -0.40324106737745       -0.27277106591000
C           -3.64687719706144        0.04502422320428        0.35064452041345
N           -4.83047499878911       -0.57439814977226       -0.22381771483885
O            2.94173264519091       -1.33938026715496        0.50220095821652
H            1.89827741803858        2.09371865794340       -0.66659816877273
H            0.68101970927751        2.36546426411892        0.40590316345541
H            1.38357476631447        0.25101149017477        1.52415509855623
H            0.21435045859869        0.10146077643040       -1.30048863315647
H            0.28099430463872       -1.25078657286952       -0.16200078734636
H           -1.11252845889760        0.03680979739171        1.45422660562733
H           -1.24022183535228        1.36058928094500        0.29520446610531
H           -2.32395538376672       -0.16969943578804       -1.34120834431592
H           -2.21929980321704       -1.48736371105020       -0.16946763857144
H           -3.64183029328757       -0.18321532452556        1.41989064940987
H           -3.75536984529420        1.12741753545139        0.23883861347074
H           -4.87279251342085       -0.37328811981110       -1.21746559098268
H           -4.77085450208459       -1.58222096185522       -0.12263612883982
H            3.69955572370502       -1.81189967954035        0.10286745184709
