25
 energy: -34.168519707777 gnorm: 0.000063217203 xtb: 6.7.1 (edcfbbe)
N            1.58877702659850        1.82070871176094        0.13579951222946
C            1.37796212350165        0.39266979805451        0.45598736091432
C            2.68713176197125       -0.34840623178571       -0.04655376611625
O            3.54746264148378        0.43019579338081       -0.51690276814634
C            0.14304014814313       -0.18880949510601       -0.21492743237414
C           -1.16017676656499        0.30036913026303        0.41882337859445
C           -2.37280647312845       -0.33224329888332       -0.26305827441768
C           -3.66871260821335        0.16028795331182        0.37281756196256
N           -4.84246426993724       -0.47436477974828       -0.27365508303930
O            2.73353208218301       -1.57410237371762        0.07312243989294
H            2.57898445189064        1.77301347335122       -0.26974754399291
H            0.94586139699632        2.15649731560950       -0.58527693625241
H            1.33099266105731        0.23584307796854        1.53470670547468
H            0.16993188441387        0.04851773792075       -1.28066247412565
H            0.22182844763287       -1.27472752334253       -0.12858319689690
H           -1.15683991408262        0.03732975040989        1.47745211625882
H           -1.23057647021561        1.38556159497524        0.34032686962999
H           -2.35140328818564       -0.07815732985590       -1.32357121716375
H           -2.29416112758521       -1.41646724210831       -0.17362734598201
H           -3.67104184901441       -0.08367603553745        1.43503199636850
H           -3.74606282223999        1.24212270889045        0.26570914281519
H           -4.86116347904687       -0.24885974074387       -1.27531170090439
H           -4.78968058972641       -1.49516501598119       -0.17650155287295
H           -5.71643030412688       -0.14846123643676        0.15459576544861
H            1.57061020242832        2.43872054635778        0.94771964313902
