20
 energy: -30.620933047209 gnorm: 0.000093017696 xtb: 6.7.1 (edcfbbe)
N           -1.93906765238706        0.13964154069063       -1.37398098328136
C           -0.53591713288438        0.46477214643904       -1.22223293191558
C            0.21624357762925        0.01195116555466       -2.45985666308034
O           -0.10382887733987       -0.94341711910768       -3.13235663251071
C            0.17961964242082       -0.20884136542236       -0.02211585631013
C           -0.29750705996123        0.34991367465808        1.30733252831445
S            0.60953302561882       -0.46904995139778        2.67285716119847
C           -0.12442767099554        0.43515023390017        4.06832867514965
O            1.29026232519048        0.73779574197764       -2.69529841423356
H           -2.02513484532676       -0.77440465140959       -1.80818775412878
H           -2.39809956174796        0.10757403974719       -0.47190071768448
H           -0.42932336503270        1.55151172825695       -1.12949316134431
H            1.25468646046608       -0.03991997618737       -0.10906059144814
H            0.00196390371834       -1.28684173971166       -0.05749987894015
H           -1.35927141533037        0.16296175373640        1.47106367157784
H           -0.09763596854829        1.41963858053134        1.37322462659041
H            0.33898610381728        0.04278599298694        4.96647648390709
H            0.09329455641731        1.49342720689874        3.96400473304333
H           -1.19507823118666        0.25695202383110        4.08926041177896
H            1.80174329158335        0.42443408814000       -3.46855499920724
