20
 energy: -30.623044775087 gnorm: 0.000040813743 xtb: 6.7.1 (edcfbbe)
N           -1.85645261132432       -0.01226287832130       -1.39085430300969
C           -0.47618464210079        0.45934646353346       -1.15812084550519
C            0.32054695203990        0.08884187909910       -2.48483492325030
O           -0.40182341088825       -0.44129532766929       -3.35674078867488
C            0.17892333466628       -0.19360983111797        0.04966021036530
C           -0.31948725281130        0.38534106443792        1.36675859283003
S            0.42547764805956       -0.54385042525355        2.76396474898842
C           -0.18532443430333        0.49031036841815        4.12943377358581
O            1.52013219806710        0.35798874431718       -2.52707173086121
H           -1.75265507120013       -0.38224599615186       -2.39448667549141
H           -2.10979523584059       -0.78421091725755       -0.76960715903158
H           -0.43768492348537        1.54523048651615       -1.06240603462331
H            1.25721937328006       -0.03978509683924       -0.03384883790020
H            0.01000222193769       -1.27237722065478        0.02819255040820
H           -1.40029727124988        0.29437195818821        1.47109985767020
H           -0.02167963654975        1.42827802301344        1.47158215751004
H            0.17699262368284        0.03532197089857        5.04457976931047
H            0.21621124583456        1.49388455331554        4.02664037978614
H           -1.27040243520197        0.49950569325359        4.11966095228435
H           -2.56357717918161        0.72296176505581       -1.35379765112116
