23
 energy: -35.940639102200 gnorm: 0.000038916219 xtb: 6.7.1 (edcfbbe)
N            1.31099466842926        1.01596679366960        1.14835747620479
C           -0.03166599170877        0.41275313327503        1.27312642690233
C           -0.16753290135605       -0.00418443411561        2.79793614796387
O            0.87381390180515        0.20440874001873        3.45875770991051
C           -0.18221948919535       -0.82434723151238        0.38798654750935
C           -0.15061569287141       -0.45981397761405       -1.07130856837441
C            0.99858972077210       -0.65046876373845       -1.82868990117556
C           -1.26570299523790        0.10993695853079       -1.67498468277704
C            1.03335097552491       -0.28136562407414       -3.16327228211198
C           -1.23248004793726        0.48020921741466       -3.00721141284385
C           -0.08120482784055        0.28748894694737       -3.75425144969419
O           -1.24106823875436       -0.47871332850402        3.16987105343705
H            1.67855751590603        0.85243175912319        2.14256039653664
H            1.88985412136248        0.52905635476260        0.45948537807200
H           -0.82005826347939        1.13117633109998        1.04832433256266
H            0.61101923087954       -1.53514753869574        0.62743988446234
H           -1.13395926762808       -1.29168922391899        0.64740687545581
H            1.86641750119389       -1.11695555804184       -1.38440131021568
H           -2.16616784163305        0.25338278575551       -1.09535633076693
H            1.93025834160741       -0.44112990114309       -3.74229129573853
H           -2.10738221806496        0.91612838282651       -3.46577509128539
H           -0.05753162916770        0.57370287458809       -4.79471716353595
H            1.29359159174114        2.01579803662975        0.94312640791966
