23
 energy: -35.938856139443 gnorm: 0.000021237691 xtb: 6.7.1 (edcfbbe)
N            1.28029179992530        1.14061917507139        1.09442017792428
C            0.01399295978602        0.47163965250622        1.29729762183252
C           -0.10165771456496        0.02781440621848        2.74029163789390
O            0.83508787927097       -0.34697838004738        3.41187470932165
C           -0.19341490763500       -0.81516869355521        0.44026254172953
C           -0.15649580871580       -0.47637876748668       -1.02027751813585
C            1.00834618962991       -0.64000293729850       -1.75994500533432
C           -1.27991118104439        0.05367249454121       -1.64503527374696
C            1.04882130594690       -0.28723324429325       -3.09851621299858
C           -1.24102011465687        0.40540482186438       -2.98177709432995
C           -0.07543399070552        0.23710525117995       -3.71188831257886
O           -1.34725136572366        0.03067321667040        3.17403625655414
H            2.01814810339696        0.61048179042234        1.54804077736368
H            1.48681885474438        1.19456102229358        0.10244416929125
H           -0.79665580458128        1.17349123711396        1.07538133174077
H            0.59660640022597       -1.52721963512552        0.69009098803858
H           -1.15850431302537       -1.24994921838026        0.70394717081262
H            1.88766605976380       -1.05685966119527       -1.28908897213678
H           -2.18980851330710        0.18549852650230       -1.07822487874220
H            1.96022515496897       -0.42233147953124       -3.66147853480421
H           -2.12136073194273        0.81177886409309       -3.45647430121833
H           -0.04488510808875        0.51180478464601       -4.75527758958447
H           -1.43263473532614       -0.29143732308286        4.09389677368146
