17
 energy: -26.369926341638 gnorm: 0.000050910641 xtb: 6.7.1 (edcfbbe)
N           -0.84834833545575        1.06831009151293        0.09649386791241
C           -0.01877925897263       -0.05162749538439        0.49782882650154
C            1.44236768709929        0.19057483546385        0.19242255242149
O            1.98620324530029        1.26872303961314        0.30155970747975
C           -0.66425037195621       -1.24068843830421       -0.22864399372184
C           -2.14186795189851       -0.83034963119213       -0.36902438856426
C           -2.21148722810396        0.58510518743666        0.22454897284812
O            2.08784966603641       -0.90607310387959       -0.15498684836275
H           -0.66076672350408        1.90922433560012        0.62851230254166
H           -0.05626810936353       -0.22911107517245        1.59401361803912
H           -0.20262236609957       -1.36614317619283       -1.20569348460643
H           -0.53537878219930       -2.16235322640122        0.33286511411999
H           -2.43324260977654       -0.81472409260040       -1.41639756662121
H           -2.80424751023594       -1.50970400850861        0.16263236285424
H           -2.88687881205224        1.24097268084643       -0.32406580799599
H           -2.54242004139767        0.53855787373421        1.27562367084866
H            3.03912598013368       -0.74864206673472       -0.32165057827396
