17
 energy: -26.377977202188 gnorm: 0.000071729937 xtb: 6.7.1 (edcfbbe)
N           -0.85207089083863        1.02261821754486        0.59299744687376
C            0.04518377696161       -0.15636978165828        0.61904250183154
C            1.19951531341867        0.16382752549003       -0.41589192526238
O            1.06910921253862        1.27499521790469       -0.97818819476426
C           -0.80560697584510       -1.33770639556480        0.15158886071724
C           -1.90819907096799       -0.66408424200344       -0.66409182938389
C           -2.19737406564342        0.58336502774425        0.16004500801098
O            2.08497482804821       -0.67917016311238       -0.56794673951687
H           -0.86870981118724        1.55200150674195        1.46383176023142
H            0.50480136204723       -0.32381367900910        1.59156233979551
H           -0.20480620424604       -2.03445304277094       -0.43016327385613
H           -1.22687512256383       -1.86924608099502        1.00478990911768
H           -1.52773361315309       -0.39083851439642       -1.64859858787696
H           -2.78195343790296       -1.29694874536244       -0.78567125426278
H           -2.69690243499260        1.36703471447967       -0.40451830053596
H           -2.78897130389565        0.32390381865174        1.03844271086682
H           -0.35199516871172        1.59984930785065       -0.15779323750757
