39
 energy: -57.422124885164 gnorm: 0.000071384928 xtb: 6.7.1 (edcfbbe)
C            5.30705131850187        2.67866358320196        0.06569010897083
C            4.84535598803400        1.25940645700166        0.37115384509682
C            5.85815639339955        0.19398543610576       -0.08288514507546
C            5.07459014079131       -0.59390477191207       -1.08337146201155
N            3.87876590198277       -0.23984205744355       -1.27179652676809
C            3.56017080307215        0.88257075778499       -0.41372004428192
C            2.37998734418791        0.53027379199238        0.49873611134843
O            2.28589508402486        0.97025692407154        1.64075724071658
N            1.48577663880022       -0.27274790075040       -0.07605340501236
C            0.25070138529299       -0.69337656213821        0.54814000576649
C           -0.96527415996143       -0.10769059366397       -0.17124963878346
C           -2.26700967265302       -0.57508775153567        0.47366139707430
C           -3.48345996753250        0.02644289412411       -0.22451275871713
C           -4.79207195002385       -0.53019782275209        0.36167127246697
C           -5.96358277913210        0.23425465059257       -0.24304563480763
O           -5.99632759799622        1.50472723759777        0.11401483462803
O           -6.78662052055239       -0.26883912785830       -0.98048000398929
N           -4.88092915457608       -1.96035830541387        0.14068375779621
H           -6.74245812689480        1.99530580324708       -0.28459531875319
H           -4.79960979340157       -0.34347157480790        1.44152804256536
H           -5.74160799648375       -2.31954353780257        0.53869473115739
H           -4.91971736227178       -2.14297309536087       -0.85770010431189
H           -3.48143178135037        1.11125760894908       -0.11171279165688
H           -3.44986742042363       -0.21030975367138       -1.29012657890905
H           -2.33774377637892       -1.66118710514547        0.42460613575452
H           -2.27630726772880       -0.28472405515095        1.52505203914403
H           -0.90701940764180        0.98191136359439       -0.13718762869575
H           -0.94491982065009       -0.41548977822527       -1.21797382023439
H            0.19873113693650       -1.78503598334847        0.53944612058438
H            0.28344700444480       -0.34703287244927        1.58358912810165
H            1.68486675425911       -0.59209119712069       -1.01420465334124
H            3.21588423885512        1.71269116620896       -1.04223198223014
H            5.49082821396623       -1.42554592303167       -1.62878916678862
H            6.74108466929627        0.63538990343765       -0.54679849799928
H            6.19209380527132       -0.45144896228595        0.72979165724619
H            4.63078240315380        1.17692202808568        1.44036188095460
H            5.49669759430109        2.79830249774284       -0.99945225026410
H            4.54445008330709        3.39280367634918        0.36811621713709
H            6.22068141042250        2.90268594821447        0.61114829818832
