39
 energy: -57.423568633372 gnorm: 0.000052830245 xtb: 6.7.1 (edcfbbe)
C            5.24415086948240        2.76806088087729        0.10843081503197
C            4.84282192115673        1.33002759810618        0.41044984101827
C            5.90989379126094        0.30871256086310       -0.02034394139177
C            5.16987341919039       -0.54008204933909       -1.00373826583617
N            3.96238469594331       -0.24185089601619       -1.21343447945157
C            3.58896299345977        0.89200753346100       -0.39299054599178
C            2.39807642580819        0.52773390524726        0.49919753516744
O            2.26126858022530        0.99191898725808        1.62727728138451
N            1.54445889772452       -0.31921743106536       -0.07482301302496
C            0.30410460572318       -0.75283317085024        0.52837770766858
C           -0.90626529944310       -0.20785124440045       -0.23291031032122
C           -2.21594040429125       -0.65769958584531        0.40984233588683
C           -3.42290723749900       -0.10162287321848       -0.34758273209617
C           -4.74928788328872       -0.51237303611589        0.27379183224743
C           -5.94812546625914        0.29924840507571       -0.37620724068206
O           -5.89729584159290        1.52924610332530       -0.34149487633416
O           -6.83868222470622       -0.43687090400901       -0.85746024976622
N           -5.07250279427700       -1.93625480981863        0.04241167988431
H           -4.75039189356133       -0.27513785042599        1.33852442969121
H           -5.16224980521643       -2.48727141969366        0.89661352939484
H           -6.02390646791286       -1.83079395095947       -0.44155301439634
H           -3.39118767670058        0.98978851047424       -0.34598012186591
H           -3.39752660872113       -0.41958694718004       -1.39195853321291
H           -2.24166896254885       -1.74778679400768        0.42247609555606
H           -2.24544201485864       -0.30571605301814        1.44212192715348
H           -0.85844205581622        0.88259340622125       -0.24280456875993
H           -0.86573354287069       -0.55402597345791       -1.26710640193830
H            0.28054833826450       -1.84556120364839        0.54279424087117
H            0.30525082562194       -0.38155628864584        1.55591407614382
H            1.77422302013046       -0.65032013583942       -1.00182979029515
H            3.23518830376867        1.69457757424179       -1.05168900591901
H            5.62598751936006       -1.36881243960530       -1.52089808466461
H            6.76763371811201        0.78611878707917       -0.49604261826357
H            6.27895377404431       -0.29876894292457        0.80609423334467
H            4.61438968259151        1.24180164687248        1.47649914604496
H            5.44672877785446        2.89441616848802       -0.95358493785490
H            4.44415253657361        3.44703113421334        0.39531340648868
H            6.13669523923502        3.03553570587361        0.66904278244900
H           -4.41015598180471       -2.37826578907181       -0.59906618094668
