14
 energy: -24.227346410497 gnorm: 0.000081465993 xtb: 6.7.1 (edcfbbe)
N           -0.62353674016166        1.63260176449442       -0.12682602840230
C           -0.84654193884873        0.19392660369943       -0.35713495384364
C            0.00501293753646       -0.70945433447087        0.49422907926097
Se           1.88496891638360       -0.92462248488563       -0.14532567041004
C           -2.39282703746781       -0.06171260496233       -0.00330142713132
O           -2.99934097167542        0.98966522746985        0.27253189290758
O           -2.79660258925349       -1.22061380136508       -0.04989791761717
H           -0.26187772066217        2.13109662898063       -0.94245730077524
H           -1.62205891832896        1.94754592357120        0.09745799179130
H           -0.73558578460360       -0.06006133924392       -1.41281347749338
H            0.04272767965101       -0.38980276837913        1.53543848771675
H           -0.40809247938616       -1.71886526644068        0.45535958886539
H            2.32982052110112        0.37992025929776        0.30046203993889
H           -0.02940167981203        1.81168680881644        0.68736950350722
