14
 energy: -24.228370463672 gnorm: 0.000069064276 xtb: 6.7.1 (edcfbbe)
N           -0.60822168840451        1.59276942869836       -0.35214877430323
C           -0.96674711682807        0.19012074813892       -0.39514584437173
C           -0.02371821354804       -0.54255229593373        0.55996212633808
Se           1.71675273547261        0.36492874213582        0.30012570932143
C           -2.40392806673952       -0.09749725974212        0.02244518271665
O           -3.10880002881070        0.70858074851067        0.58928391729143
O           -2.78116376266860       -1.32285225283017       -0.27592889325080
H           -1.04189144464281        2.11198135973039       -1.10716581534299
H           -0.92893686264053        1.99917566425357        0.52344919118765
H           -0.81022238207415       -0.18821726223852       -1.41003286623993
H           -0.31825951473414       -0.39860911026356        1.60105909617899
H            0.06777058116464       -1.60244329585535        0.33148566558159
H            2.49453077562247       -0.72735303635500        0.84954542053497
H           -3.69315771718395       -1.52896503720972        0.01410821381875
