13
 energy: -24.070043787964 gnorm: 0.000092793950 xtb: 6.7.1 (edcfbbe)
N           -0.79163743653748        1.74351926118771       -0.35398551910992
C           -0.95452239781120        0.30889961145994       -0.40824017747858
C           -0.02289390532115       -0.42273734078235        0.54644337050635
Se           1.87661350094790       -0.49878830280216       -0.03914617138570
C           -2.37858247716710       -0.12585196076831       -0.05074988336061
O           -3.20108087470003        0.63170103775897        0.41722374521296
O           -2.63124496130252       -1.38953194599695       -0.31552133912537
H           -1.53627659879621        2.18627148663207       -0.88271420586069
H           -0.86928351785907        2.05973648474470        0.60741589412226
H           -0.74391826068300       -0.03358466216361       -1.42856498816198
H            0.01004945961996        0.05966160789230        1.52166688177414
H           -0.30496383934840       -1.46965287352453        0.64172059947679
H           -3.54925078789897       -1.65156306448504       -0.08849794810980
