13
 energy: -24.079858542364 gnorm: 0.000090331586 xtb: 6.7.1 (edcfbbe)
N           -0.81542863507789        1.69121147823019       -0.35680763881939
C           -0.91522556138443        0.22420005363454       -0.45282588239082
C            0.05793326626151       -0.47879123763966        0.44820770700486
Se           1.99142355906869       -0.18782058883219       -0.05945781670832
C           -2.37512250471188       -0.14587292313611        0.09391535352032
O           -2.96061737348363        0.83186386327857        0.59283522621518
O           -2.74909433401227       -1.30916142568136       -0.02350840183709
H           -0.83952911660883        2.15003742707017       -1.26976745117464
H           -1.69440779777881        1.91888859568810        0.20120207402124
H           -0.80661090949875       -0.13495255997491       -1.47584390497954
H            0.00161627585799       -0.13157878656079        1.47831082342370
H           -0.07951151173647       -1.55572029211272        0.40910105726973
H            0.04023944673453        1.96801921073182        0.13573859180937
