14
 energy: -25.119700616209 gnorm: 0.000083035098 xtb: 6.7.1 (edcfbbe)
N            1.53571459194799        0.55658752965000       -0.61566036976471
C            0.13387076838849        0.46250227637871       -0.26500366951808
C           -0.01925083184362       -0.04010126375767        1.15704740466749
O            0.70626315397666       -0.86853699359788        1.66088997248815
C           -0.66948301260074       -0.51055010744980       -1.16497546440836
O           -0.56064932049901       -0.05369749472601       -2.49201819625134
O           -1.06337714616397        0.47808615284894        1.76870619528292
H            2.01082543574150       -0.29516483939171       -0.33114067981217
H            1.61071262321099        0.64216863818577       -1.62420664638960
H           -0.31718270770722        1.45595091206529       -0.35168991834321
H           -0.24462552692046       -1.51954468218289       -1.06200237363333
H           -1.71526411982501       -0.52386486166896       -0.83467117118194
H           -1.08308880163884       -0.62029879556497       -3.07562298754995
H           -1.18348464679335        0.13846008402501        2.67935212116429
