14
 energy: -25.124667341571 gnorm: 0.000033634424 xtb: 6.7.1 (edcfbbe)
N            1.50727692463910        0.46750397293903       -0.62157183629263
C            0.07815297895799        0.49953926563581       -0.25804275835664
C           -0.02616159300129       -0.09637073129636        1.20822874531195
O            1.04194146262260       -0.60118386170096        1.60737960740793
C           -0.70960772934328       -0.41079850110331       -1.19616281552982
O           -0.37430484771814       -0.05634641383227       -2.52175131561946
O           -1.11865343944619       -0.02693701625172        1.77338558946289
H            1.90586147214147       -0.14241877115247        0.14818506997157
H            1.62560181748143        0.06102830653269       -1.55671561913474
H           -0.33219658472608        1.50754494729032       -0.28218582607275
H           -0.44176589754998       -1.45820501338436       -0.99729768567043
H           -1.77600699365195       -0.28590854394225       -0.98758743282476
H           -0.94634926462486       -0.52037841083167       -3.14495015695374
H            1.94606811819678        1.38948415042037       -0.58752135048687
