17
 energy: -28.290689742312 gnorm: 0.000063621870 xtb: 6.7.1 (edcfbbe)
N           -0.46849690005273       -1.29289420550735       -0.89480661638673
C           -0.47925460224008       -0.49933009584701        0.31399063965372
C           -1.70639689843472        0.38925802855787        0.49635808623202
O           -1.90331482160764        1.06553316027926        1.48497678972645
C            0.74746522108044        0.44149681527201        0.35088911704092
O            0.58197251278525        1.34881850693239       -0.72491014904347
C            2.04636515922422       -0.34670456490945        0.25428096137589
O           -2.53601375286589        0.35477068812565       -0.52772258168904
H           -0.39845617264353       -0.66661814534277       -1.69144387574232
H           -1.34043387553587       -1.80207688023217       -0.98314043417128
H           -0.42666914158264       -1.16342152729220        1.18450630493986
H            0.70596067649944        0.99631838424276        1.30250534764615
H            1.40419380660262        1.84267092498711       -0.84955067479926
H            2.89693016502594        0.33004023992887        0.25822343890235
H            2.04812397014326       -0.93142176238073       -0.66039890263301
H            2.12950772083362       -1.01828473344579        1.10230217049750
H           -3.30148306723173        0.95184516663249       -0.41605962154975
