17
 energy: -28.294861334932 gnorm: 0.000076807642 xtb: 6.7.1 (edcfbbe)
N            1.70818299357920       -0.60650177382655        0.23786439971570
C            0.24711177626753       -0.71758825719853        0.10950657524913
C           -0.09639793341819       -0.19040323243779       -1.35028160883901
O            0.91274655913709       -0.00723248934565       -2.06078729332421
C           -0.47425658023127        0.11754618062738        1.17736128378233
O            0.33649988038353        1.25921047524711        1.39613288875000
C           -0.68373336203972       -0.66732826583967        2.47307503521198
O           -1.28653844235608       -0.03744386606448       -1.63256800813322
H            1.98319324002593       -0.37700779599259       -0.76211645139302
H            1.90246161593489        0.21682948819474        0.82768787537810
H           -0.09402255686638       -1.75175161453441        0.14968800453888
H           -1.44670405383927        0.40512167877613        0.75240886970818
H           -0.13213508562291        1.89610315332938        1.94742669509301
H           -1.23208078463017       -0.06396368525356        3.19153706850612
H           -1.26135656052161       -1.56389764385740        2.27223546220319
H            0.27237798213637       -0.94159528098231        2.90952172699333
H            2.17890859915697       -1.44192136453149        0.58449861282759
