27
 energy: -43.682899647177 gnorm: 0.000023475696 xtb: 6.7.1 (edcfbbe)
N            1.09762851009854        1.24431801262426        2.05773389982913
C           -0.07043893179230        0.35886327574054        1.87337864098539
C           -0.56704443034862        0.00090657523771        3.33247320620887
O            0.17994291805966        0.44863672336246        4.23152921419485
C            0.31828548382765       -0.92196891211229        1.13130207279349
C            0.73730963329040       -0.63141557660121       -0.27224759861373
C            2.00768796080253       -0.62822755632086       -0.77718652239775
C           -0.12524396922473       -0.25866188660807       -1.34887628929727
N            1.99249735953312       -0.27574301723420       -2.09763996059255
C            0.70355932058893       -0.04823258702890       -2.47892293219187
C           -1.50543724328249       -0.09307322960815       -1.46693682542273
C            0.17590912241941        0.32831253124328       -3.70867068059479
C           -2.01978038644929        0.27814958060296       -2.68850282601130
C           -1.18980207998644        0.48839043457601       -3.79479125172834
O           -1.59812728832011       -0.66460543321618        3.44355470014404
H            1.19896937185387        1.19617614654340        3.12281731985799
H            1.92922527368709        0.87699403255821        1.58792089385238
H           -0.88168385449199        0.86072871382803        1.34653560981517
H            1.12157022081937       -1.42374853807957        1.67466934698300
H           -0.55135451742131       -1.58226229896856        1.14289744893906
H            2.93084036180013       -0.87864986154587       -0.29099261976462
H            2.79691409727806       -0.23311179153573       -2.69967522436203
H           -2.15481047336025       -0.26215799576027       -0.61970144710312
H            0.81191777641032        0.48564862846642       -4.56641376155594
H           -3.08613405319590        0.40946085675002       -2.80270413466112
H           -1.63528111681626        0.77807427294361       -4.73499725899683
H            0.92852757543464        2.20865919991841        1.76827306072317
