27
 energy: -43.680447362899 gnorm: 0.000031072036 xtb: 6.7.1 (edcfbbe)
N            1.14044054872182        1.32581405167843        2.04379312389759
C           -0.01282131113300        0.46039001629897        1.91332264474362
C           -0.52783096359345        0.07465296544745        3.27978877928016
O            0.17645737662060       -0.07894311316169        4.25528930717210
C            0.27448707825364       -0.88017746507394        1.16763800352025
C            0.70415139040494       -0.61149903283341       -0.23249445039158
C            1.98066236339121       -0.58219231672465       -0.71983259765694
C           -0.15286093961825       -0.27317378480254       -1.32511423683077
N            1.97425207808693       -0.25965606835517       -2.04824088208711
C            0.68508888971605       -0.06469669062481       -2.44833383957017
C           -1.53383820140621       -0.13444510131593       -1.46292726596445
C            0.16570641399358        0.27744557876548       -3.69133321694477
C           -2.04042799543641        0.20456300470435       -2.69710810796657
C           -1.20183187102969        0.40850461768000       -3.79752891975820
O           -1.82946419224006       -0.14737245913888        3.28938600494321
H            1.74552955344289        0.96655664683735        2.77638414752972
H            1.66023442286009        1.32323555239876        1.17147429295397
H           -0.79960206833012        0.99632029725726        1.37231320528883
H            1.05635886143481       -1.41750383388752        1.70997868922360
H           -0.63617284709120       -1.48142807685230        1.17143462570235
H            2.90235043295041       -0.78829218028363       -0.20988221136900
H            2.78765924958278       -0.18836048911630       -2.63515021655216
H           -2.18887841102991       -0.29029232680547       -0.61838419968601
H            0.81077681686410        0.43443396144280       -4.54243426469827
H           -3.10697434251174        0.31734253709615       -2.82562082791573
H           -1.63988702325907        0.67334072367065       -4.74837437447810
H           -2.15758608959129       -0.44057817906630        4.16295627104044
