24
 energy: -40.021155444467 gnorm: 0.000071418049 xtb: 6.7.1 (edcfbbe)
N            1.29872188880099        1.02781113620503        1.53906379549951
C           -0.04381449565597        0.43130753839694        1.69293993185945
C           -0.18996230358636        0.11126727880449        3.23933408228768
O            0.85045741936237        0.35028506935818        3.89134791812024
C           -0.18188162679241       -0.86119967859869        0.88729404099039
C           -0.12337646772531       -0.59292525876035       -0.59173954471648
C            1.04423278009139       -0.81072509356188       -1.31444447016436
C           -1.23017266470219       -0.08373790370441       -1.25906652444961
C            1.10925991727023       -0.52779957494844       -2.66501096210963
C           -1.17797791775567        0.20332410512242       -2.60983655050918
C           -0.00423263749490       -0.01546296169009       -3.32399670370018
O            0.10367662443012        0.24957314245909       -4.65265838126218
O           -1.26940169163737       -0.33007358620676        3.63503941891891
H            1.66678211836435        0.91302429662184        2.53920252311710
H            1.87515970737679        0.50902926949646        0.87153941304600
H           -0.83242471412239        1.13033924412020        1.41489354729137
H            0.60633543768669       -1.55468264615366        1.18609879142144
H           -1.13799471671026       -1.31088984430185        1.16065101181503
H            1.91139915719712       -1.23312565637553       -0.82795192522042
H           -2.14773739918797        0.08295730940852       -0.71431451338275
H            2.01065129599133       -0.70114308636562       -3.23076166846167
H           -2.05189845776450        0.59283801751685       -3.11148206963745
H           -0.73176601465659        0.59252544588280       -5.00291414354417
H            1.28104613680242        2.01694331944636        1.28694763203894
