23
 energy: -39.799056962872 gnorm: 0.000048854104 xtb: 6.7.1 (edcfbbe)
N            1.21423392703660        1.02873480980873        1.43174912212245
C           -0.09084582072974        0.41364447761736        1.74658312298790
C           -0.01066746531225        0.00445823762560        3.26924380387311
O            1.14146354719569        0.10541396383499        3.74776435082642
C           -0.29998465593230       -0.84842325811120        0.89856734975646
C           -0.20902098230237       -0.53232452726691       -0.56931398358696
C            0.97249828384298       -0.73906128921797       -1.27864408534608
C           -1.28323543836501        0.02982809771616       -1.25467785624528
C            1.08377717096370       -0.40392166236580       -2.60793027999015
C           -1.18921437079479        0.37108093316421       -2.58108541361587
C            0.00447031516720        0.17263660048702       -3.33171919102425
O            0.09720237846669        0.48721291729214       -4.57209668735494
O           -1.04283612095906       -0.37742162636053        3.82435332203597
H            1.76385275720249        0.76427595683604        2.30793303449796
H            1.60926630116533        0.62046712523840        0.57555007814094
H           -0.91934415411160        1.10375511965810        1.59245760124735
H            0.45661802337647       -1.58725896275218        1.17440645623330
H           -1.27694752207774       -1.26175068518811        1.15349452526736
H            1.81736814294126       -1.21098840794112       -0.78754509820516
H           -2.21714716289460        0.19313107369698       -0.72909009102283
H            2.00594099132673       -0.58618748169569       -3.14791045321209
H           -2.03933990734502        0.79693355697548       -3.10283625660724
H            1.16999288616438        2.04423309861513        1.33992015269416
