23
 energy: -39.797027129909 gnorm: 0.000037450542 xtb: 6.7.1 (edcfbbe)
N            1.23537045195342        1.15668504493330        1.47017403268347
C           -0.01625147786554        0.48326784580617        1.75303714277756
C           -0.06254680907541        0.06235264831056        3.19991190957141
O            0.89897967373537       -0.32055970726085        3.83374384135609
C           -0.24662297837412       -0.82298830295361        0.92645870830451
C           -0.18323266052182       -0.53710610302983       -0.54424948241155
C            0.98811615924273       -0.73342788240318       -1.27062367202156
C           -1.28165002715762       -0.01254569935381       -1.22137594261621
C            1.06396325950737       -0.43581169792480       -2.61029929102986
C           -1.22390147206669        0.28951849445675       -2.55917849317200
C           -0.04240610496694        0.09456574636623       -3.32796701569268
O            0.01878257638067        0.37494874655244       -4.57927614979536
O           -1.28597303482301        0.07675421830900        3.69956841217943
H            1.99812866282109        0.59947523760657        1.84623548908709
H            1.35679446107832        1.20603096469599        0.46177266185036
H           -0.84061132988994        1.17228150370158        1.54516411337610
H            0.52706103725980       -1.54441694669688        1.20374050377629
H           -1.22343606990054       -1.22960015653239        1.19535723550682
H            1.86076023409392       -1.14437739321395       -0.77334683145774
H           -2.20581174308017        0.15409125143176       -0.67998318637994
H            1.98357665041501       -0.60329912197070       -3.16054817333739
H           -2.09137964633131        0.68946240129591       -3.07255336929610
H           -1.31870964834630       -0.24929719831332        4.62224009792572
