24
 energy: -40.019103452332 gnorm: 0.000070945679 xtb: 6.7.1 (edcfbbe)
N            1.27061304458439        1.14261563580866        1.46095794777900
C            0.01135032660983        0.48347154667305        1.73043330657939
C           -0.05871316059643        0.09292103413594        3.19081210087399
O            0.90079833335663       -0.24573561418663        3.84979187230984
C           -0.22161686655726       -0.83518290537289        0.92980237261115
C           -0.20970634081604       -0.56237669531007       -0.54493571117749
C            0.93374639989353       -0.77631964461033       -1.30258430596005
C           -1.33727926868077       -0.04685965276807       -1.17638062634623
C            0.95468115512843       -0.49758011816948       -2.65788211954014
C           -1.32869527677123        0.23449651930137       -2.52642440510751
C           -0.17922358942576        0.00849913497190       -3.28065965494215
O           -0.21942401984651        0.29184877156762       -4.60995875200340
O           -1.29222242187794        0.09393640619666        3.65846278447147
H            2.02136338493879        0.63226771391510        1.91624307576626
H            1.44656530583269        1.14912662352249        0.46161347662200
H           -0.80622523346345        1.17651835368767        1.50694682949420
H            0.56778850021185       -1.54266832454463        1.19410168212689
H           -1.18428376336927       -1.25120615623870        1.22975251307013
H            1.82058711952062       -1.17898765666589       -0.83441639634588
H           -2.23469467094120        0.12918097154790       -0.60280998872208
H            1.85343975000121       -0.67756559780899       -3.22973105455588
H           -2.20211935706054        0.62793507927340       -3.02171396857416
H            0.62688007427542        0.07982830153876       -5.03200570714361
H           -1.34762900930121       -0.20116801814687        4.58958839567439
