27
E = -47.3452971742 Eh
 C      1.64557695     -1.94025950      0.65260419
 N      2.69091837     -1.92436735     -0.10704189
 N      0.89109704     -3.08172934      0.47441062
 C      1.51770203     -3.87209976     -0.49531737
 O      1.08296494     -4.95712970     -0.87276005
 C      2.68508060     -3.10137662     -0.85937427
 C      3.62168537     -3.48625800     -1.79672715
 H      3.41382142     -4.44890240     -2.26340269
 C      4.78630600     -2.82437882     -2.22791907
 C      5.21562581     -1.56060300     -1.72884403
 H      4.61110216     -1.07365992     -0.96972381
 C      5.60634011     -3.43162788     -3.22353208
 H      5.29807328     -4.39768326     -3.61976252
 C      6.35150137     -0.96140691     -2.17857062
 H      6.65823938      0.00207085     -1.78282390
 C      6.74465072     -2.84340487     -3.68239586
 H      7.35066940     -3.32839081     -4.44164397
 C      7.20287070     -1.55777993     -3.19021224
 O      8.24051365     -1.01365038     -3.60308293
 C     -0.33583056     -3.46247124      1.13295715
 H     -0.63016876     -4.43261493      0.72514851
 H     -1.12589213     -2.73005349      0.93971086
 C      1.26924161     -0.86809874      1.61799204
 H      1.22385908     -1.25855460      2.63757907
 H      0.29126023     -0.44694050      1.37255688
 H      2.01666576     -0.07687158      1.57464645
 H     -0.18745964     -3.55037177      2.21380959
