27
Coordinates from ORCA-job opt E -723.399439383422. Planar PBE0-D4/def2-TZVP tighscf Opt
  C           1.61249410935480     -1.92544238727868      0.68569292011324
  N           2.67172159449626     -1.85582479351078     -0.05030299243121
  N           0.88658746450928     -3.07865919659370      0.48031694868296
  C           1.54594425218341     -3.84144344497537     -0.49638969346746
  O           1.14170179809934     -4.92931589394484     -0.89686423345662
  C           2.69701496241152     -3.02024794774197     -0.81668644876368
  C           3.63619721564132     -3.39849412101416     -1.75195420663693
  H           3.40617791246531     -4.36259668096549     -2.20380441788094
  C           4.80414710465367     -2.77643243994128     -2.21078975087110
  C           5.28233820587443     -1.51692399522717     -1.74818547564712
  H           4.70158948396941     -1.00490797837553     -0.98972087335948
  C           5.58590513334602     -3.42530796664140     -3.20623862561783
  H           5.23731582199489     -4.38903597065766     -3.57263552139185
  C           6.42681222707571     -0.96719592777466     -2.23518305274809
  H           6.77947859430824     -0.00608747624011     -1.87297523227225
  C           6.73266126296879     -2.88937547826129     -3.70427884576801
  H           7.31150922885822     -3.40526468916172     -4.46401948344276
  C           7.23973924952078     -1.61054142464651     -3.25051103769821
  O           8.28594813390170     -1.10492828956133     -3.69280416473258
  C          -0.32682043095292     -3.49283923680877      1.10876608696685
  H          -0.58316026963223     -4.46128725785340      0.67457240089864
  H          -1.14687167194519     -2.79187807859862      0.92098218149059
  C           1.18463713570369     -0.89475473095511      1.66084410907120
  H           1.12631416648961     -1.29685158585166      2.67842090006171
  H           0.19624621972941     -0.48997795197216      1.41642717094393
  H           1.91077385131238     -0.08359536556656      1.64431233605237
  H          -0.20998152373788     -3.60940894918007      2.19128819000467