   14
FINAL HEAT OF FORMATION =     0.000000
 C     0.000000     0.000000     0.000000
 N     0.000000     0.000000     1.301000
 C     1.189444     0.000000     1.828089
 N     2.074042     0.000000     0.828232
 C     1.273967     0.000000    -0.403774
 C     1.779610     0.000000    -1.815980
 O     2.979950     0.000000    -2.034119
 O     0.874104     0.000000    -2.883716
 N     1.548733     0.000000    -4.041506
 H    -0.875071     0.000000    -0.649886
 H     1.429077     0.000000     2.891421
 H     0.882539     0.000000    -4.827054
 H     2.141108     0.840991    -4.093703
 H    -0.707324     0.000000     2.049727
