12
E = -26.3832865772 Eh
 C     -0.03837127      0.00000000      0.05200117
 C     -0.03917341      0.00000000      1.41799789
 N      1.29065385      0.00000000      1.75643530
 C      2.01546887      0.00000000      0.61591461
 N      1.23023148      0.00000000     -0.43592646
 O     -1.14095247      0.00000000     -0.74630388
 C     -1.01327574      0.00000000     -2.08867919
 H     -0.83006954      0.00000000      2.14586878
 H      3.09185732      0.00000000      0.59407480
 H      1.65345040      0.00000000      2.69509192
 O     -1.95711646      0.00000000     -2.81672079
 H      0.04411566      0.00000000     -2.41978819
