15
sd
C     0.000000     0.000000     0.000000
C     0.000000     0.000000     1.384528
C     1.205656     0.000000     2.088154
C     1.361180     0.017065     3.567918
H     1.993161     0.781333     3.879047
C    -1.323599    -0.012107     2.118964
H    -0.924773    -0.002261    -0.566015
H     0.932163     0.001482    -0.555858
H     2.134373     0.004774     1.518886
H     0.388634     0.084926     4.076848
O     1.972545    -1.139269     4.007831
H    -1.441982    -0.923292     2.714999
H    -1.411617     0.839421     2.802545
H    -2.156594     0.037518     1.413988
H     2.062583    -1.109922     4.950084 

