27
step 0
 C       1.64557683      -1.94025936       0.65260414
 N       2.69091818      -1.92436721      -0.10704188
 N       0.89109698      -3.08172912       0.47441059
 C       1.51770192      -3.87209948      -0.49531733
 O       1.08296486      -4.95712934      -0.87275999
 C       2.68508041      -3.10137640      -0.85937421
 C       3.62168511      -3.48625775      -1.79672702
 H       3.41382117      -4.44890208      -2.26340253
 C       4.78630566      -2.82437862      -2.22791891
 C       5.21562543      -1.56060289      -1.72884391
 H       4.61110183      -1.07365984      -0.96972374
 C       5.60633971      -3.43162763      -3.22353185
 H       5.29807290      -4.39768294      -3.61976226
 C       6.35150091      -0.96140684      -2.17857046
 H       6.65823890       0.00207085      -1.78282377
 C       6.74465023      -2.84340467      -3.68239559
 H       7.35066887      -3.32839057      -4.44164365
 C       7.20287018      -1.55777982      -3.19021201
 O       8.24051306      -1.01365031      -3.60308267
 C      -0.33583054      -3.46247099       1.13295707
 H      -0.63016871      -4.43261461       0.72514846
 H      -1.12589205      -2.73005329       0.93971079
 C       1.26924152      -0.86809868       1.61799192
 H       1.22385899      -1.25855451       2.63757888
 H       0.29126021      -0.44694047       1.37255678
 H       2.01666561      -0.07687157       1.57464634
 H      -0.18745963      -3.55037151       2.21380943
27
step 1
 C       1.64390538      -1.94218702       0.64839603
 N       2.69259022      -1.92043199      -0.10708062
 N       0.89361227      -3.08145921       0.46913302
 C       1.51517026      -3.87356274      -0.49218422
 O       1.08108515      -4.95694039      -0.87349073
 C       2.68803322      -3.10095447      -0.85827278
 C       3.62064004      -3.49106748      -1.79628238
 H       3.42400720      -4.46011681      -2.25376155
 C       4.78584379      -2.82396591      -2.22697080
 C       5.21396274      -1.56068628      -1.73020331
 H       4.61280737      -1.08306080      -0.97658475
 C       5.60371056      -3.43001773      -3.22483694
 H       5.29515153      -4.40653449      -3.61622318
 C       6.35235307      -0.96342236      -2.17836773
 H       6.65309008      -0.01145436      -1.77637962
 C       6.74813947      -2.84311459      -3.68238170
 H       7.35521500      -3.33019343      -4.44450228
 C       7.20355899      -1.55557045      -3.18874811
 O       8.23920540      -1.01237582      -3.60591867
 C      -0.33467157      -3.46074188       1.13616377
 H      -0.61560342      -4.43203355       0.72724112
 H      -1.13868001      -2.73873753       0.94420301
 C       1.26701366      -0.86787766       1.62335173
 H       1.23048913      -1.26335867       2.64718350
 H       0.29015715      -0.44771601       1.36606259
 H       2.02479856      -0.06802434       1.58286716
 H      -0.18206820      -3.54182365       2.20921301
27
step 2
 C       1.64225456      -1.94405228       0.64422502
 N       2.69425381      -1.91651970      -0.10712792
 N       0.89607215      -3.08118301       0.46389153
 C       1.51268524      -3.87501391      -0.48908451
 O       1.07920304      -4.95675685      -0.87422030
 C       2.69096583      -3.10054644      -0.85716814
 C       3.61961973      -3.49585706      -1.79583071
 H       3.43411181      -4.47128925      -2.24413186
 C       4.78537051      -2.82357353      -2.22603719
 C       5.21233267      -1.56080469      -1.73160455
 H       4.61411868      -1.09203764      -0.98288863
 C       5.60110804      -3.42843778      -3.22616266
 H       5.29240453      -4.41484879      -3.61254039
 C       6.35317785      -0.96548107      -2.17817111
 H       6.64821276      -0.02426222      -1.76970805
 C       6.75159812      -2.84284726      -3.68236659
 H       7.35960635      -3.33185610      -4.44714605
 C       7.20424385      -1.55338642      -3.18730174
 O       8.23790555      -1.01109336      -3.60875310
 C      -0.33350999      -3.45899862       1.13931535
 H      -0.60118027      -4.43161566       0.72937179
 H      -1.15115805      -2.74750322       0.94863774
 C       1.26484584      -0.86764110       1.62869923
 H       1.23699137      -1.26798167       2.65634254
 H       0.28917841      -0.44851727       1.35979657
 H       2.03223524      -0.05990460       1.59106758
 H      -0.17659335      -3.53334228       2.20513784
27
step 3
 C       1.64064526      -1.94579489       0.64012696
 N       2.69590043      -1.91265271      -0.10719205
 N       0.89842215      -3.08089348       0.45872233
 C       1.51029388      -3.87644238      -0.48605252
 O       1.07731602      -4.95658412      -0.87494749
 C       2.69385667      -3.10016600      -0.85605575
 C       3.61864746      -3.50060848      -1.79536564
 H       3.44406176      -4.48236586      -2.23452266
 C       4.78487542      -2.82322188      -2.22513332
 C       5.21076747      -1.56099063      -1.73308770
 H       4.61465596      -1.10017900      -0.98809371
 C       5.59855885      -3.42691422      -3.22752673
 H       5.28998665      -4.42214545      -3.60859955
 C       6.35394821      -0.96762320      -2.17798591
 H       6.64386272      -0.03567057      -1.76258107
 C       6.75499614      -2.84262312      -3.68234823
 H       7.36370186      -3.33325408      -4.44938083
 C       7.20492246      -1.55125274      -3.18589138
 O       8.23662085      -1.00979522      -3.61158426
 C      -0.33234285      -3.45722927       1.14235723
 H      -0.58703619      -4.43152126       0.73157949
 H      -1.16303897      -2.75641251       0.95296013
 C       1.26279057      -0.86737965       1.63402054
 H       1.24323653      -1.27226175       2.66465841
 H       0.28843422      -0.44936688       1.35397775
 H       2.03838122      -0.05312903       1.59921875
 H      -0.17095081      -3.52498481       2.20210073
27
step 4
 C       1.63909843      -1.94735748       0.63613562
 N       2.69752123      -1.90885295      -0.10728066
 N       0.90060957      -3.08058291       0.45366113
 C       1.50804159      -3.87784006      -0.48312253
 O       1.07542191      -4.95642706      -0.87567097
 C       2.69668579      -3.09982617      -0.85493165
 C       3.61774518      -3.50530513      -1.79488113
 H       3.45378846      -4.49328056      -2.22493802
 C       4.78434872      -2.82293104      -2.22427445
 C       5.20929396      -1.56127181      -1.73468596
 H       4.61410140      -1.10713059      -0.99173728
 C       5.59608999      -3.42546779      -3.22894307
 H       5.28802433      -4.42802801      -3.60432346
 C       6.35464055      -0.96988002      -2.17781493
 H       6.64025890      -0.04510575      -1.75480422
 C       6.75830333      -2.84245983      -3.68232284
 H       7.36738603      -3.33428421      -4.45104567
 C       7.20559304      -1.54919353      -3.18453523
 O       8.23535823      -1.00847402      -3.61441041
 C      -0.33116731      -3.45542644       1.14524074
 H      -0.57329487      -4.43188089       0.73391562
 H      -1.17405951      -2.76551099       0.95711771
 C       1.26089108      -0.86709082       1.63929957
 H       1.24909640      -1.27606527       2.67180063
 H       0.28801700      -0.45028334       1.34881182
 H       2.04276768      -0.04818059       1.60728392
 H      -0.16506521      -3.51679668       2.20054178
27
step 5
 C       1.63763461      -1.94868644       0.63228231
 N       2.69910705      -1.90514177      -0.10740074
 N       0.90258437      -3.08024283       0.44874270
 C       1.50597150      -3.87920137      -0.48032827
 O       1.07351892      -4.95628990      -0.87638934
 C       2.69943490      -3.09953911      -0.85379247
 C       3.61693343      -3.50993176      -1.79437139
 H       3.46322786      -4.50395751      -2.21537861
 C       4.78378128      -2.82272047      -2.22347569
 C       5.20792941      -1.56166800      -1.73642052
 H       4.61224835      -1.11263292      -0.99349800
 C       5.59372867      -3.42411220      -3.23042120
 H       5.28661083      -4.43220253      -3.59967664
 C       6.35523686      -0.97226806      -2.17765585
 H       6.63756069      -0.05217459      -1.74625171
 C       6.76148925      -2.84237153      -3.68228423
 H       7.37057589      -3.33487098      -4.45202225
 C       7.20625454      -1.54723169      -3.18325110
 O       8.23412400      -1.00712287      -3.61722972
 C      -0.32997915      -3.45358881       1.14792745
 H      -0.56006390      -4.43278621       0.73644685
 H      -1.18399324      -2.77481958       0.96105973
 C       1.25918079      -0.86677908       1.64451720
 H       1.25444651      -1.27929558       2.67752350
 H       0.28799335      -0.45127870       1.34448546
 H       2.04506323      -0.04539774       1.61521956
 H      -0.15887981      -3.50880935       2.20077218
27
step 6
 C       1.63627331      -1.94973272       0.62859570
 N       2.70064857      -1.90153970      -0.10755853
 N       0.90429992      -3.07986394       0.44400035
 C       1.50412384      -3.88052297      -0.47770230
 O       1.07160571      -4.95617621      -0.87710117
 C       2.70208753      -3.09931601      -0.85263538
 C       3.61623131      -3.51447438      -1.79383087
 H       3.47232016      -4.51431550      -2.20584389
 C       4.78316481      -2.82260872      -2.22275180
 C       5.20667842      -1.56218855      -1.73829646
 H       4.60903927      -1.11654895      -0.99324410
 C       5.59150223      -3.42285337      -3.23196616
 H       5.28580374      -4.43448892      -3.59466693
 C       6.35572621      -0.97478498      -2.17749909
 H       6.63585164      -0.05671730      -1.73689603
 C       6.76452326      -2.84236830      -3.68222350
 H       7.37322506      -3.33497051      -4.45224050
 C       7.20690680      -1.54538844      -3.18205631
 O       8.23292348      -1.00573562      -3.62004016
 C      -0.32877144      -3.45172192       1.15039264
 H      -0.54743332      -4.43428489       0.73925596
 H      -1.19266117      -2.78432885       0.96473672
 C       1.25768333      -0.86645559       1.64965076
 H       1.25916907      -1.28189953       2.68167800
 H       0.28839768      -0.45235668       1.34116131
 H       2.04507865      -0.04497118       1.62297679
 H      -0.15236520      -3.50104007       2.20293377
27
step 7
 C       1.63503257      -1.95045261       0.62510158
 N       2.70213627      -1.89806644      -0.10775951
 N       0.90571394      -3.07943606       0.43946541
 C       1.50253528      -3.88180365      -0.47527552
 O       1.06968158      -4.95608865      -0.87780485
 C       2.70462909      -3.09916711      -0.85145822
 C       3.61565614      -3.51892002      -1.79325393
 H       3.48100979      -4.52427152      -2.19633391
 C       4.78249189      -2.82261311      -2.22211700
 C       5.20553147      -1.56283173      -1.74030106
 H       4.60458215      -1.11887449      -0.99105476
 C       5.58943760      -3.42168909      -3.23357829
 H       5.28562418      -4.43482710      -3.58934512
 C       6.35610531      -0.97740825      -2.17732674
 H       6.63513434      -0.05882486      -1.72682270
 C       6.76737480      -2.84245592      -3.68212894
 H       7.37532665      -3.33457336      -4.45168271
 C       7.20755032      -1.54368320      -3.18096730
 O       8.23176113      -1.00430680      -3.62283959
 C      -0.32753351      -3.44983838       1.15262721
 H      -0.53547530      -4.43637856       0.74244086
 H      -1.19993898      -2.79399638       0.96810024
 C       1.25641253      -0.86613787       1.65467377
 H       1.26315578      -1.28387126       2.68421760
 H       0.28922860      -0.45351168       1.33897420
 H       2.04276770      -0.04694409       1.63050297
 H      -0.14552547      -3.49349328       2.20697823
27
step 8
 C       1.63392838      -1.95080838       0.62182272
 N       2.70356059      -1.89474077      -0.10800838
 N       0.90678915      -3.07894823       0.43516664
 C       1.50123842      -3.88304385      -0.47307649
 O       1.06774644      -4.95602890      -0.87849868
 C       2.70704689      -3.09910162      -0.85025947
 C       3.61522349      -3.52325650      -1.79263478
 H       3.48924523      -4.53374626      -2.18685158
 C       4.78175614      -2.82274940      -2.22158481
 C       5.20446597      -1.56358542      -1.74240490
 H       4.59913944      -1.11972858      -0.98720777
 C       5.58756109      -3.42060907      -3.23525339
 H       5.28605710      -4.43327878      -3.58380307
 C       6.35637805      -0.98009714      -2.17711312
 H       6.63533666      -0.05881870      -1.71622713
 C       6.77001371      -2.84263578      -3.68198619
 H       7.37691261      -3.33370448      -4.45038317
 C       7.20818622      -1.54213323      -3.17999947
 O       8.23064042      -1.00283183      -3.62562567
 C      -0.32625035      -3.44795733       1.15463757
 H      -0.52424503      -4.43902579       0.74611107
 H      -1.20576203      -2.80374601       0.97110266
 C       1.25537248      -0.86584967       1.65955599
 H       1.26631047      -1.28525416       2.68520015
 H       0.29044693      -0.45472825       1.33802814
 H       2.03822776      -0.05121260       1.63774318
 H      -0.13839996      -3.48616346       2.21267289
27
step 9
 C       1.63297426      -1.95076883       0.61877880
 N       2.70491208      -1.89158035      -0.10830909
 N       0.90749403      -3.07838880       0.43112975
 C       1.50026124      -3.88424519      -0.47113084
 O       1.06580096      -4.95599768      -0.87918082
 C       2.70933013      -3.09912768      -0.84903824
 C       3.61494700      -3.52747216      -1.79196733
 H       3.49697903      -4.54266884      -2.17740452
 C       4.78095232      -2.82303147      -2.22116784
 C       5.20344921      -1.56442943      -1.74456546
 H       4.59309300      -1.11932717      -0.98213738
 C       5.58589799      -3.41959512      -3.23698292
 H       5.28705267      -4.43002556      -3.57817057
 C       6.35655419      -0.98279751      -2.17682677
 H       6.63632786      -0.05719688      -1.70539329
 C       6.77241080      -2.84290500      -3.68177866
 H       7.37805131      -3.33242164      -4.44842536
 C       7.20881612      -1.54075350      -3.17916687
 O       8.22956369      -1.00130702      -3.62839592
 C      -0.32490260      -3.44610345       1.15644366
 H      -0.51378239      -4.44214830       0.75038246
 H      -1.21012714      -2.81346944       0.97369703
 C       1.25455731      -0.86562090       1.66426371
 H       1.26855126      -1.28614060       2.68478496
 H       0.29197624      -0.45598133       1.33839464
 H       2.03169968      -0.05752649       1.64464183
 H      -0.13106055      -3.47903841       2.21963048
27
step 10
 C       1.63218075      -1.95030972       0.61598641
 N       2.70618152      -1.88860168      -0.10866484
 N       0.90780339      -3.07774559       0.42737684
 C       1.49962667      -3.88540997      -0.46946074
 O       1.06384653      -4.95599463      -0.87984928
 C       2.71146984      -3.09925240      -0.84779427
 C       3.61483836      -3.53155560      -1.79124515
 H       3.50416790      -4.55098130      -2.16800648
 C       4.78007642      -2.82347105      -2.22087767
 C       5.20244259      -1.56533843      -1.74673223
 H       4.58689474      -1.11794774      -0.97637455
 C       5.58447217      -3.41862185      -3.23875438
 H       5.28852880      -4.42536227      -3.57261092
 C       6.35664756      -0.98544797      -2.17643335
 H       6.63793981      -0.05456270      -1.69466103
 C       6.77453848      -2.84325678      -3.68148809
 H       7.37884246      -3.33081148      -4.44593572
 C       7.20944187      -1.53955642      -3.17848197
 O       8.22853220      -0.99972966      -3.63114770
 C      -0.32346705      -3.44430555       1.15807561
 H      -0.50411396      -4.44564002       0.75537072
 H      -1.21309141      -2.82302982       0.97583716
 C       1.25395104      -0.86548766       1.66876024
 H       1.26981237      -1.28666910       2.68322512
 H       0.29370561      -0.45723719       1.34011217
 H       2.02356621      -0.06549122       1.65114446
 H      -0.12360487      -3.47210238       2.22735656
27
step 11
 C       1.63155513      -1.94941404       0.61345906
 N       2.70736024      -1.88581989      -0.10907816
 N       0.90769881      -3.07700619       0.42392599
 C       1.49935223      -3.88654056      -0.46808430
 O       1.06188530      -4.95601851      -0.88050203
 C       2.71345883      -3.09948174      -0.84652785
 C       3.61490731      -3.53549555      -1.79046145
 H       3.51077290      -4.55864287      -2.15867857
 C       4.77912577      -2.82407743      -2.22072470
 C       5.20140621      -1.56628503      -1.74885213
 H       4.58101464      -1.11589313      -0.97048377
 C       5.58330566      -3.41765771      -3.24055187
 H       5.29037533      -4.41968418      -3.56731457
 C       6.35667424      -0.98798628      -2.17589887
 H       6.63998826      -0.05155227      -1.68438995
 C       6.77637155      -2.84368090      -3.68109551
 H       7.37940938      -3.32898341      -4.44307389
 C       7.21006545      -1.53855174      -3.17795537
 O       8.22754592      -0.99809812      -3.63387812
 C      -0.32191762      -3.44259498       1.15956975
 H      -0.49525526      -4.44937797       0.76118422
 H      -1.21476772      -2.83226741       0.97747789
 C       1.25352763      -0.86549215       1.67300680
 H       1.27004565      -1.28701874       2.68085402
 H       0.29549463      -0.45845483       1.34318682
 H       2.01434553      -0.07457455       1.65719994
 H      -0.11614716      -3.46533842       2.23530446
27
step 12
 C       1.63110111      -1.94807217       0.61120720
 N       2.70844020      -1.88324866      -0.10955095
 N       0.90716909      -3.07615815       0.42079083
 C       1.49944969      -3.88763895      -0.46701520
 O       1.05992017      -4.95606711      -0.88113692
 C       2.71529156      -3.09982055      -0.84523977
 C       3.61516156      -3.53928072      -1.78960913
 H       3.51675980      -4.56563257      -2.14944971
 C       4.77809915      -2.82485722      -2.22071803
 C       5.20030268      -1.56724244      -1.75087430
 H       4.57589537      -1.11346063      -0.96500759
 C       5.58241806      -3.41666679      -3.24235681
 H       5.29246036      -4.41346595      -3.56249065
 C       6.35665090      -0.99035465      -2.17519251
 H       6.64229123      -0.04877220      -1.67492625
 C       6.77788823      -2.84416447      -3.68058233
 H       7.37988924      -3.32706168      -4.44002036
 C       7.21068869      -1.53774638      -3.17759558
 O       8.22660364      -0.99641185      -3.63658413
 C      -0.32022677      -3.44100390       1.16096479
 H      -0.48721277      -4.45323326       0.76791729
 H      -1.21531627      -2.84100734       0.97857590
 C       1.25325170      -0.86568195       1.67696383
 H       1.26922159      -1.28739957       2.67806467
 H       0.29718116      -0.45958814       1.34759439
 H       2.00467469      -0.08412329       1.66276303
 H      -0.10880831      -3.45872955       2.24292799
27
step 13
 C       1.63081877      -1.94628189       0.60923826
 N       2.70941416      -1.88090014      -0.11008448
 N       0.90621045      -3.07518936       0.41798022
 C       1.49992488      -3.88870629      -0.46626236
 O       1.05795483      -4.95613726      -0.88175172
 C       2.71696414      -3.10027260      -0.84393136
 C       3.61560673      -3.54289981      -1.78868078
 H       3.52209955      -4.57194920      -2.14035607
 C       4.77699677      -2.82581424      -2.22086536
 C       5.19910010      -1.56818653      -1.75275368
 H       4.57191824      -1.11091898      -0.96042466
 C       5.58182558      -3.41561139      -3.24414889
 H       5.29463944      -4.40723005      -3.55835557
 C       6.35659360      -0.99250383      -2.17428887
 H       6.64468295      -0.04675314      -1.66657644
 C       6.77907120      -2.84469279      -3.67993165
 H       7.38042153      -3.32517594      -4.43696178
 C       7.21131294      -1.53714443      -3.17740869
 O       8.22570304      -0.99467130      -3.63926254
 C      -0.31836715      -3.43956355       1.16229849
 H      -0.47998569      -4.45708162       0.77564433
 H      -1.21493223      -2.84906938       0.97909108
 C       1.25308039      -0.86610826       1.68059271
 H       1.26733022      -1.28803909       2.67528136
 H       0.29859126      -0.46058844       1.35328375
 H       1.99527660      -0.09339664       1.66779758
 H      -0.10170665      -3.45225915       2.24972611
27
step 14
 C       1.63070453      -1.94404820       0.60755673
 N       2.71027584      -1.87878485      -0.11067946
 N       0.90482667      -3.07408830       0.41549800
 C       1.50077756      -3.88974261      -0.46582975
 O       1.05599373      -4.95622491      -0.88234414
 C       2.71847423      -3.10084053      -0.84260441
 C       3.61624632      -3.54634162      -1.78766876
 H       3.52676862      -4.57761192      -2.13144072
 C       4.77582030      -2.82694936      -2.22117291
 C       5.19777407      -1.56909715      -1.75445355
 H       4.56938027      -1.10849314      -0.95712105
 C       5.58154014      -3.41445551      -3.24590726
 H       5.29676735      -4.40150501      -3.55511918
 C       6.35651684      -0.99439567      -2.17316952
 H       6.64702306      -0.04591975      -1.65958910
 C       6.77990886      -2.84525033      -3.67912976
 H       7.38113481      -3.32345043      -4.43407404
 C       7.21193893      -1.53674708      -3.17739829
 O       8.22484073      -0.99287799      -3.64191002
 C      -0.31631351      -3.43830248       1.16360511
 H      -0.47356744      -4.46081270       0.78441508
 H      -1.21382985      -2.85627923       0.97898850
 C       1.25296697      -0.86682260       1.68385811
 H       1.26438183      -1.28916469       2.67292401
 H       0.29955127      -0.46140744       1.36018118
 H       1.98690510      -0.10162201       1.67228002
 H      -0.09495011      -3.44591042       2.25527678
27
step 15
 C       1.63075126      -1.94138306       0.60616426
 N       2.71102004      -1.87691159      -0.11133608
 N       0.90302904      -3.07284432       0.41334297
 C       1.50200141      -3.89074660      -0.46571634
 O       1.05404206      -4.95632511      -0.88291184
 C       2.71982093      -3.10152583      -0.84126111
 C       3.61708169      -3.54959524      -1.78656539
 H       3.53074944      -4.58265822      -2.12275238
 C       4.77457290      -2.82826045      -2.22164535
 C       5.19630893      -1.56995901      -1.75594707
 H       4.56848090      -1.10635497      -0.95537305
 C       5.58156814      -3.41316894      -3.24761189
 H       5.29871234      -4.39677475      -3.55296877
 C       6.35643295      -0.99600465      -2.17182393
 H       6.64920245      -0.04657306      -1.65414322
 C       6.78039639      -2.84582176      -3.67816753
 H       7.38213356      -3.32199331      -4.43150566
 C       7.21256657      -1.53655264      -3.17756529
 O       8.22401237      -0.99103439      -3.64452317
 C      -0.31404468      -3.43724505       1.16491360
 H      -0.46794683      -4.46433766       0.79425136
 H      -1.21222389      -2.86248086       0.97824098
 C       1.25286612      -0.86787169       1.68673050
 H       1.26040776      -1.29098319       2.67136777
 H       0.29990136      -0.46200044       1.36819557
 H       1.98026711      -0.10807462       1.67620287
 H      -0.08863016      -3.43966549       2.25926034
27
step 16
 C       1.63094850      -1.93830497       0.60505969
 N       2.71164271      -1.87528739      -0.11205399
 N       0.90083611      -3.07144796       0.41150882
 C       1.50358415      -3.89171546      -0.46591620
 O       1.05210570      -4.95643221      -0.88345247
 C       2.72100471      -3.10232885      -0.83990401
 C       3.61811216      -3.55265036      -1.78536314
 H       3.53403065      -4.58714116      -2.11434394
 C       4.77325907      -2.82974246      -2.22228576
 C       5.19469837      -1.57076211      -1.75721812
 H       4.56931538      -1.10461817      -0.95533778
 C       5.58190936      -3.41173163      -3.24924499
 H       5.30037080      -4.39342512      -3.55205293
 C       6.35635166      -0.99731862      -2.17024993
 H       6.65114666      -0.04888194      -1.65034168
 C       6.78053681      -2.84639278      -3.67704170
 H       7.38348617      -3.32088694      -4.42936263
 C       7.21319498      -1.53655659      -3.17790795
 O       8.22321261      -0.98914397      -3.64709847
 C      -0.31154556      -3.43640999       1.16624629
 H      -0.46310890      -4.46759491       0.80514515
 H      -1.21031004      -2.86754863       0.97683204
 C       1.25274045      -0.86929102       1.68918891
 H       1.25546133      -1.29366004       2.67090255
 H       0.29950943      -0.46232976       1.37722383
 H       1.97593011      -0.11217275       1.67957776
 H      -0.08281728      -3.43350419       2.26147410
27
step 17
 C       1.63128279      -1.93483846       0.60423922
 N       2.71214103      -1.87391745      -0.11283237
 N       0.89827341      -3.06989106       0.40998436
 C       1.50550775      -3.89264505      -0.46641876
 O       1.05019117      -4.95653983      -0.88396365
 C       2.72202734      -3.10324877      -0.83853591
 C       3.61933498      -3.55549765      -1.78405479
 H       3.53660736      -4.59112462      -2.10627052
 C       4.77188467      -2.83138744      -2.22309560
 C       5.19294565      -1.57150206      -1.75826172
 H       4.57187264      -1.10333534      -0.95704896
 C       5.58255584      -3.41013746      -3.25079215
 H       5.30168018      -4.39169670      -3.55246773
 C       6.35627978      -0.99833903      -2.16845389
 H       6.65281800      -0.05287923      -1.64820772
 C       6.78034162      -2.84695084      -3.67575571
 H       7.38521659      -3.32018114      -4.42769794
 C       7.21382235      -1.53675165      -3.17842187
 O       8.22243532      -0.98721105      -3.64963239
 C      -0.30880887      -3.43580931       1.16761808
 H      -0.45903560      -4.47055327       0.81705833
 H      -1.20824630      -2.87139832       0.97475902
 C       1.25256660      -0.87109854       1.69122313
 H       1.24961872      -1.29730105       2.67169841
 H       0.29828459      -0.46236826       1.38715637
 H       1.97423403      -0.11356921       1.68243708
 H      -0.07755796      -3.42740278       2.26183995
27
step 18
 C       1.63173806      -1.93101352       0.60369639
 N       2.71251336      -1.87280519      -0.11366989
 N       0.89537286      -3.06816700       0.40875372
 C       1.50774873      -3.89353001      -0.46720916
 O       1.04830561      -4.95664099      -0.88444305
 C       2.72289182      -3.10428358      -0.83715987
 C       3.62074543      -3.55812923      -1.78263370
 H       3.53848141      -4.59467831      -2.09858746
 C       4.77045676      -2.83318472      -2.22407474
 C       5.19106358      -1.57218017      -1.75908409
 H       4.57603620      -1.10249666      -0.96041606
 C       5.58349141      -3.40839672      -3.25224315
 H       5.30262717      -4.39165369      -3.55424778
 C       6.35622100      -0.99908086      -2.16645069
 H       6.65421672      -0.05846173      -1.64768390
 C       6.77983099      -2.84748553      -3.67432010
 H       7.38730014      -3.31988980      -4.42650657
 C       7.21444604      -1.53712797      -3.17910012
 O       8.22167361      -0.98524083      -3.65212135
 C      -0.30583651      -3.43544769       1.16903592
 H      -0.45570619      -4.47321308       0.82992371
 H      -1.20613840      -2.87399528       0.97203579
 C       1.25233913      -0.87329029       1.69283519
 H       1.24297960      -1.30194070       2.67378407
 H       0.29618822      -0.46210286       1.39788167
 H       1.97523321      -0.11221268       1.68483379
 H      -0.07287281      -3.42133265       2.26040691
27
step 19
 C       1.63229612      -1.92686498       0.60342222
 N       2.71275918      -1.87195220      -0.11456471
 N       0.89217224      -3.06627078       0.40779678
 C       1.51027863      -3.89436406      -0.46826874
 O       1.04645665      -4.95672814      -0.88488836
 C       2.72360233      -3.10543007      -0.83577915
 C       3.62233690      -3.56053909      -1.78109397
 H       3.53966139      -4.59787160      -2.09134818
 C       4.76898348      -2.83512109      -2.22522149
 C       5.18907414      -1.57280347      -1.75970245
 H       4.58158789      -1.10202969      -0.96522658
 C       5.58469160      -3.40653657      -3.25359219
 H       5.30324933      -4.39317650      -3.55736417
 C       6.35617572      -0.99957219      -2.16426342
 H       6.65538159      -0.06539270      -1.64863299
 C       6.77903358      -2.84798857      -3.67275228
 H       7.38966493      -3.31999180      -4.42572729
 C       7.21506267      -1.53767327      -3.17993340
 O       8.22091997      -0.98323922      -3.65456179
 C      -0.30264023      -3.43532233       1.17049857
 H      -0.45309736      -4.47560492       0.84364739
 H      -1.20403121      -2.87535877       0.96869470
 C       1.25207047      -0.87583962       1.69403965
 H       1.23566696      -1.30753901       2.67704256
 H       0.29324129      -0.46153762       1.40928962
 H       1.97868819      -0.10835796       1.68683885
 H      -0.06875579      -3.41525918       2.25734918
27
step 20
 C       1.63293716      -1.92243190       0.60340520
 N       2.71287901      -1.87135838      -0.11551444
 N       0.88871437      -3.06419906       0.40708960
 C       1.51306447      -3.89514036      -0.46957560
 O       1.04465242      -4.95679328      -0.88529730
 C       2.72416421      -3.10668385      -0.83439713
 C       3.62410092      -3.56272363      -1.77943064
 H       3.54016280      -4.60076758      -2.08460223
 C       4.76747395      -2.83718104      -2.22653259
 C       5.18700781      -1.57338448      -1.76014437
 H       4.58821523      -1.10180120      -0.97115267
 C       5.58612438      -3.40459935      -3.25483748
 H       5.30362951      -4.39597977      -3.56172957
 C       6.35614105      -0.99985347      -2.16192298
 H       6.65638926      -0.07330849      -1.65084155
 C       6.77798564      -2.84845355      -3.67107567
 H       7.39219829      -3.32043573      -4.42525076
 C       7.21566822      -1.53837309      -3.18091028
 O       8.22016643      -0.98121277      -3.65695022
 C      -0.29924166      -3.43542331       1.17199677
 H      -0.45118316      -4.47778597       0.85811223
 H      -1.20190774      -2.87556166       0.96478735
 C       1.25178705      -0.87870023       1.69486261
 H       1.22782562      -1.31398814       2.68122542
 H       0.28952681      -0.46069595       1.42127322
 H       1.98411037      -0.10252144       1.68853695
 H      -0.06517467      -3.40914073       2.25295950
27
step 21
 C       1.63364025      -1.91775693       0.60363134
 N       2.71287426      -1.87102196      -0.11651613
 N       0.88504631      -3.06195019       0.40660500
 C       1.51606936      -3.89585192      -0.47110521
 O       1.04290141      -4.95682803      -0.88566768
 C       2.72458388      -3.10803932      -0.83301732
 C       3.62602735      -3.56468198      -1.77763990
 H       3.54000799      -4.60341762      -2.07839347
 C       4.76593812      -2.83934698      -2.22800334
 C       5.18490247      -1.57394074      -1.76044666
 H       4.59552407      -1.10162250      -0.97776432
 C       5.58775139      -3.40263916      -3.25598049
 H       5.30388452      -4.39965122      -3.56720924
 C       6.35611097      -0.99997619      -2.15946712
 H       6.65735161      -0.08173173      -1.65402769
 C       6.77672984      -2.84887543      -3.66931851
 H       7.39475733      -3.32114759      -4.42493256
 C       7.21625826      -1.53921102      -3.18201750
 O       8.21940464      -0.97916860      -3.65928322
 C      -0.29567144      -3.43573465       1.17351385
 H      -0.44993457      -4.47983436       0.87318241
 H      -1.19969605      -2.87472556       0.96038389
 C       1.25152288      -0.88181190       1.69533982
 H       1.21961943      -1.32112684       2.68598227
 H       0.28518646      -0.45962140       1.43372852
 H       1.99084381      -0.09539733       1.69002089
 H      -0.06207287      -3.40292805       2.24763670
27
step 22
 C       1.63438392      -1.91288574       0.60408422
 N       2.71274705      -1.87093957      -0.11756625
 N       0.88121845      -3.05952420       0.40631314
 C       1.51925310      -3.89649196      -0.47283100
 O       1.04121236      -4.95682376      -0.88599738
 C       2.72486885      -3.10948972      -0.83164330
 C       3.62810443      -3.56641634      -1.77571918
 H       3.53922610      -4.60585699      -2.07275869
 C       4.76438657      -2.84159959      -2.22962764
 C       5.18280160      -1.57449374      -1.76065328
 H       4.60305878      -1.10126038      -0.98455249
 C       5.58952955      -3.40071739      -3.25702488
 H       5.30415051      -4.40370253      -3.57363546
 C       6.35607680      -1.00000059      -2.15693913
 H       6.65840987      -0.09009460      -1.65785475
 C       6.77531365      -2.84924984      -3.66751221
 H       7.39718220      -3.32204022      -4.42460912
 C       7.21682813      -1.54016898      -3.18324024
 O       8.21862601      -0.97711423      -3.66155751
 C      -0.29196769      -3.43623562       1.17502704
 H      -0.44931878      -4.48184147       0.88870867
 H      -1.19728251      -2.87301206       0.95557095
 C       1.25131271      -0.88510721       1.69551402
 H       1.21122692      -1.32875981       2.69089957
 H       0.28041198      -0.45837660       1.44655292
 H       1.99815882      -0.08776063       1.69138606
 H      -0.05937323      -3.39656430       2.24186559
27
step 23
 C       1.63514665      -1.90786635       0.60474494
 N       2.71250008      -1.87110637      -0.11866060
 N       0.87728358      -3.05692277       0.40618221
 C       1.52257292      -3.89705427      -0.47472501
 O       1.03959420      -4.95677171      -0.88628438
 C       2.72502764      -3.11102717      -0.83027870
 C       3.63031899      -3.56793213      -1.77366725
 H       3.53785289      -4.60810181      -2.06772666
 C       4.76283040      -2.84391810      -2.23139806
 C       5.18075173      -1.57506735      -1.76081233
 H       4.61033185      -1.10045583      -0.99096494
 C       5.59141281      -3.39889810      -3.25797535
 H       5.30456796      -4.40762201      -3.58082290
 C       6.35602808      -0.99999236      -2.15438581
 H       6.65972404      -0.09777564      -1.66195292
 C       6.77378757      -2.84957248      -3.66568972
 H       7.39931019      -3.32302322      -4.42411458
 C       7.21737313      -1.54122752      -3.18456250
 O       8.21782186      -0.97505750      -3.66376994
 C      -0.28817389      -3.43690247       1.17650950
 H      -0.44929806      -4.48390271       0.90453424
 H      -1.19452940      -2.87061132       0.95044841
 C       1.25118647      -0.88851728       1.69543215
 H       1.20283605      -1.33667843       2.69554201
 H       0.27543183      -0.45704016       1.45964257
 H       2.00533547      -0.08037989       1.69272552
 H      -0.05698404      -3.38998596       2.23618718
27
step 24
 C       1.63590739      -1.90274864       0.60559224
 N       2.71213647      -1.87151608      -0.11979432
 N       0.87329584      -3.05414913       0.40617908
 C       1.52598410      -3.89753354      -0.47675841
 O       1.03805590      -4.95666310      -0.88652682
 C       2.72506980      -3.11264266      -0.82892720
 C       3.63265650      -3.56923796      -1.77148430
 H       3.53593049      -4.61014803      -2.06331764
 C       4.76128099      -2.84628063      -2.23330596
 C       5.17879904      -1.57568534      -1.76097174
 H       4.61686320      -1.09895191      -0.99645607
 C       5.59335392      -3.39724377      -3.25883674
 H       5.30526821      -4.41092173      -3.58858269
 C       6.35595392      -1.00001789      -2.15185460
 H       6.66145655      -0.10415230      -1.66594942
 C       6.77220333      -2.84983851      -3.66388382
 H       7.40098933      -3.32401215      -4.42329661
 C       7.21788876      -1.54236610      -3.18596738
 O       8.21698351      -0.97300646      -3.66591754
 C      -0.28433642      -3.43771014       1.17793332
 H      -0.44982849      -4.48610740       0.92050080
 H      -1.19129409      -2.86772947       0.94512535
 C       1.25116591      -0.89197617       1.69514276
 H       1.19463837      -1.34467989       2.69949067
 H       0.27049484      -0.45570190       1.47288931
 H       2.01172517      -0.07395198       1.69412641
 H      -0.05480744      -3.38312507       2.23115853
27
step 25
 C       1.63664603      -1.89758374       0.60660246
 N       2.71165958      -1.87216115      -0.12096187
 N       0.86930984      -3.05120804       0.40627001
 C       1.52944071      -3.89792559      -0.47890206
 O       1.03660632      -4.95648929      -0.88672297
 C       2.72500582      -3.11432619      -0.82759248
 C       3.63510135      -3.57034540      -1.76917188
 H       3.53350695      -4.61197211      -2.05954336
 C       4.75974982      -2.84866459      -2.23534156
 C       5.17698537      -1.57636836      -1.76117423
 H       4.62222631      -1.09652926      -1.00054731
 C       5.59530604      -3.39581193      -3.25961325
 H       5.30636295      -4.41317470      -3.59673424
 C       6.35584480      -1.00013844      -2.14939032
 H       6.66375081      -0.10866659      -1.66950562
 C       6.77061205      -2.85004216      -3.66212571
 H       7.40209026      -3.32493639      -4.42203003
 C       7.21837081      -1.54356345      -3.18743744
 O       8.21610250      -0.97096918      -3.66799756
 C      -0.28050191      -3.43863393       1.17927325
 H      -0.45085845      -4.48852864       0.93645434
 H      -1.18744742      -2.86457612       0.93971565
 C       1.25126323      -0.89542354       1.69469374
 H       1.18682316      -1.35258296       2.70237450
 H       0.26585248      -0.45445676       1.48617805
 H       2.01678917      -0.06906085       1.69566757
 H      -0.05274988      -3.37591313       2.22730338
27
step 26
 C       1.63734383      -1.89242351       0.60774966
 N       2.71107287      -1.87303279      -0.12215701
 N       0.86537968      -3.04810567       0.40642133
 C       1.53289633      -3.89822748      -0.48112691
 O       1.03525412      -4.95624194      -0.88687129
 C       2.72484708      -3.11606686      -0.82627824
 C       3.63763693      -3.57126868      -1.76673287
 H       3.53063573      -4.61353376      -2.05640749
 C       4.75824828      -2.85104699      -2.23749404
 C       5.17534433      -1.57713067      -1.76145195
 H       4.62609452      -1.09304454      -1.00288953
 C       5.59722421      -3.39465250      -3.26030799
 H       5.30793658      -4.41404144      -3.60511444
 C       6.35569463      -1.00040396      -2.14703155
 H       6.66670677      -0.11089590      -1.67235600
 C       6.76906253      -2.85017651      -3.66044362
 H       7.40251583      -3.32574518      -4.42022733
 C       7.21881551      -1.54479783      -3.18895493
 O       8.21517065      -0.96895361      -3.67000751
 C      -0.27671478      -3.43965077       1.18051079
 H      -0.45232718      -4.49121426       0.95225018
 H      -1.18288953      -2.86135292       0.93433366
 C       1.25148131      -0.89880621       1.69413063
 H       1.17957190      -1.36023976       2.70389379
 H       0.26174135      -0.45339820       1.49938500
 H       2.02011871      -0.06615522       1.69741837
 H      -0.05073353      -3.36828672       2.22505834
27
step 27
 C       1.63798376      -1.88732002       0.60900572
 N       2.71037988      -1.87412107      -0.12337285
 N       0.86155799      -3.04484958       0.40660006
 C       1.53630467      -3.89843758      -0.48340441
 O       1.03400757      -4.95591315      -0.88697049
 C       2.72460581      -3.11785294      -0.82498819
 C       3.64024588      -3.57202410      -1.76417141
 H       3.52737488      -4.61478022      -2.05390647
 C       4.75678748      -2.85340481      -2.23975167
 C       5.17389811      -1.57797735      -1.76182228
 H       4.62827778      -1.08846349      -1.00331404
 C       5.59906664      -3.39380601      -3.26092269
 H       5.31004141      -4.41328706      -3.61358456
 C       6.35550255      -1.00084759      -2.14480768
 H       6.67035868      -0.11061479      -1.67434099
 C       6.76759971      -2.85023345      -3.65886186
 H       7.40220805      -3.32641181      -4.41784616
 C       7.21921961      -1.54604737      -3.19050212
 O       8.21418030      -0.96696751      -3.67194515
 C      -0.27301500      -3.44074008       1.18163810
 H      -0.45416368      -4.49417996       0.96775694
 H      -1.17756222      -2.85824393       0.92909002
 C       1.25181464      -0.90207898       1.69349521
 H       1.17305324      -1.36754376       2.70383613
 H       0.25836738      -0.45261176       1.51237714
 H       2.02144321      -0.06553880       1.69943850
 H      -0.04870666      -3.36019450       2.22472251
27
step 28
 C       1.63855076      -1.88232504       0.61034052
 N       2.70958415      -1.87541497      -0.12460185
 N       0.85789516      -3.04144864       0.40677456
 C       1.53962026      -3.89855551      -0.48570683
 O       1.03287446      -4.95549561      -0.88701948
 C       2.72429495      -3.11967204      -0.82372603
 C       3.64291033      -3.57262942      -1.76149277
 H       3.52378614      -4.61565168      -2.05203065
 C       4.75537812      -2.85571531      -2.24210189
 C       5.17265590      -1.57890270      -1.76228553
 H       4.62874064      -1.08287954      -1.00185877
 C       5.60079599      -3.39330232      -3.26145760
 H       5.31269487      -4.41079107      -3.62203546
 C       6.35527421      -1.00148232      -2.14273714
 H       6.67466049      -0.10783221      -1.67542524
 C       6.76626330      -2.85020381      -3.65740002
 H       7.40115235      -3.32693591      -4.41489341
 C       7.21958035      -1.54729038      -3.19206144
 O       8.21312435      -0.96501821      -3.67380857
 C      -0.26943643      -3.44188418       1.18266083
 H      -0.45628611      -4.49740557       0.98285909
 H      -1.17145717      -2.85540798       0.92408797
 C       1.25225060      -0.90520519       1.69282459
 H       1.16741860      -1.37443451       2.70208577
 H       0.25589253      -0.45216922       1.52501302
 H       2.02063223      -0.06736700       1.70177828
 H      -0.04665090      -3.35160479       2.22642037
27
step 29
 C       1.63903197      -1.87748954       0.61172215
 N       2.70868923      -1.87690249      -0.12583592
 N       0.85443846      -3.03791299       0.40691503
 C       1.54279904      -3.89858199      -0.48800746
 O       1.03186190      -4.95498283      -0.88701749
 C       2.72392804      -3.12151127      -0.82249543
 C       3.64561214      -3.57310320      -1.75870324
 H       3.51993381      -4.61608732      -2.05076551
 C       4.75403030      -2.85795636      -2.24453147
 C       5.17161432      -1.57989042      -1.76282553
 H       4.62759675      -1.07651203      -0.99876190
 C       5.60238033      -3.39315985      -3.26191142
 H       5.31587830      -4.40655164      -3.63039143
 C       6.35502184      -1.00230062      -2.14082727
 H       6.67948373      -0.10279338      -1.67569621
 C       6.76508665      -2.85007768      -3.65607247
 H       7.39937913      -3.32734397      -4.41142632
 C       7.21989545      -1.54850567      -3.19361571
 O       8.21199646      -0.96311255      -3.67559618
 C      -0.26600579      -3.44306826       1.18359922
 H      -0.45860205      -4.50083509       0.99745799
 H      -1.16462053      -2.85297324       0.91942015
 C       1.25277068      -0.90815716       1.69215036
 H       1.16279832      -1.38090001       2.69862774
 H       0.25442476      -0.45212400       1.53714478
 H       2.01769506      -0.07164621       1.70447948
 H      -0.04458358      -3.34251220       2.23008625
27
step 30
 C       1.63941682      -1.87286316       0.61311725
 N       2.70769875      -1.87857067      -0.12706649
 N       0.85123136      -3.03425401       0.40699401
 C       1.54579898      -3.89851865      -0.49028086
 O       1.03097618      -4.95436921      -0.88696401
 C       2.72351907      -3.12335742      -0.82130006
 C       3.64833313      -3.57346407      -1.75581002
 H       3.51588351      -4.61603137      -2.05009301
 C       4.75275347      -2.86010666      -2.24702658
 C       5.17075960      -1.58091551      -1.76341266
 H       4.62508204      -1.06968418      -0.99442491
 C       5.60379410      -3.39338512      -3.26228138
 H       5.31953705      -4.40068562      -3.63861307
 C       6.35476335      -1.00327705      -2.13907585
 H       6.68462852      -0.09594552      -1.67534354
 C       6.76409589      -2.84984487      -3.65488817
 H       7.39696262      -3.32768807      -4.40755041
 C       7.22016306      -1.54967284      -3.19514827
 O       8.21079114      -0.96125675      -3.67730674
 C      -0.26274232      -3.44428002       1.18448723
 H      -0.46100966      -4.50438052       1.01147147
 H      -1.15715373      -2.85103385       0.91516587
 C       1.25335129      -0.91091680       1.69149813
 H       1.15929849      -1.38697697       2.69354776
 H       0.25401125      -0.45250773       1.54862123
 H       2.01277961      -0.07823363       1.70757646
 H      -0.04255451      -3.33294207       2.23547423
27
step 31
 C       1.63969708      -1.86849364       0.61449141
 N       2.70661650      -1.88040568      -0.12828467
 N       0.84831282      -3.03048430       0.40698680
 C       1.54858058      -3.89836772      -0.49250300
 O       1.03022270      -4.95365026      -0.88685888
 C       2.72308228      -3.12519714      -0.82014348
 C       3.65105544      -3.57373007      -1.75282114
 H       3.51170085      -4.61543879      -2.04999286
 C       4.75155629      -2.86214598      -2.24957295
 C       5.17007088      -1.58194735      -1.76400863
 H       4.62151461      -1.06278683      -0.98935584
 C       5.60501882      -3.39397271      -3.26256331
 H       5.32358185      -4.39342445      -3.64669907
 C       6.35452044      -1.00437324      -2.13747378
 H       6.68984504      -0.08787750      -1.67462558
 C       6.76330943      -2.84949542      -3.65385074
 H       7.39401687      -3.32804276      -4.40341418
 C       7.22038164      -1.55077255      -3.19664312
 O       8.20950385      -0.95945624      -3.67893940
 C      -0.25965800      -3.44550915       1.18536971
 H      -0.46339968      -4.50792922       1.02483246
 H      -1.14921112      -2.84964865       0.91138900
 C       1.25396442      -0.91347618       1.69088705
 H       1.15699827      -1.39274934       2.68702824
 H       0.25463518      -0.45332839       1.55929173
 H       2.00617108      -0.08683757       1.71109756
 H      -0.04063797      -3.32295168       2.24219089
27
step 32
 C       1.63986683      -1.86442630       0.61580964
 N       2.70544660      -1.88239289      -0.12948137
 N       0.84571672      -3.02661772       0.40687172
 C       1.55110738      -3.89813171      -0.49465132
 O       1.02960577      -4.95282268      -0.88670229
 C       2.72263198      -3.12701717      -0.81902916
 C       3.65376175      -3.57391809      -1.74974532
 H       3.50745006      -4.61427999      -2.05044367
 C       4.75044660      -2.86405533      -2.25215589
 C       5.16952384      -1.58295326      -1.76457169
 H       4.61725120      -1.05623710      -0.98410675
 C       5.60604350      -3.39490561      -3.26275176
 H       5.32789153      -4.38510527      -3.65468652
 C       6.35431635      -1.00554364      -2.13600802
 H       6.69485978      -0.07924864      -1.67383165
 C       6.76273784      -2.84902032      -3.65295894
 H       7.39068883      -3.32849998      -4.39920063
 C       7.22054984      -1.55178684      -3.19808504
 O       8.20813110      -0.95771563      -3.68049369
 C      -0.25675823      -3.44674670       1.18629843
 H      -0.46565834      -4.51135376       1.03748681
 H      -1.14099444      -2.84884194       0.90813653
 C       1.25457805      -0.91583803       1.69032967
 H       1.15594814      -1.39834482       2.67934021
 H       0.25621592      -0.45456980       1.56901068
 H       1.99828833      -0.09702004       1.71506669
 H      -0.03892188      -3.31262787       2.24974320
27
step 33
 C       1.63992239      -1.86070342       0.61703697
 N       2.70419362      -1.88451695      -0.13064749
 N       0.84347133      -3.02266936       0.40663039
 C       1.55334641      -3.89781306      -0.49670490
 O       1.02912855      -4.95188454      -0.88649476
 C       2.72218229      -3.12880453      -0.81796044
 C       3.65643558      -3.57404336      -1.74659196
 H       3.50319268      -4.61254435      -2.05142386
 C       4.74943136      -2.86581714      -2.25476048
 C       5.16909391      -1.58390177      -1.76506142
 H       4.61264824      -1.05043989      -0.97921727
 C       5.60686475      -3.39615621      -3.26284029
 H       5.33231771      -4.37615571      -3.66264888
 C       6.35417366      -1.00674116      -2.13466437
 H       6.69940114      -0.07072115      -1.67324768
 C       6.76238417      -2.84841234      -3.65220740
 H       7.38714849      -3.32916195      -4.39511543
 C       7.22066645      -1.55269935      -3.19945968
 O       8.20667051      -0.95603859      -3.68196955
 C      -0.25404276      -3.44798441       1.18732765
 H      -0.46767078      -4.51452332       1.04939098
 H      -1.13274440      -2.84860628       0.90543796
 C       1.25515668      -0.91801585       1.68983205
 H       1.15616900      -1.40392898       2.67083049
 H       0.25861279      -0.45619267       1.57764228
 H       1.98967484      -0.10820562       1.71950514
 H      -0.03749643      -3.30208181       2.25759166
27
step 34
 C       1.63986218      -1.85736361       0.61813904
 N       2.70286282      -1.88676189      -0.13177409
 N       0.84159885      -3.01865560       0.40624791
 C       1.55526860      -3.89741377      -0.49864447
 O       1.02879292      -4.95083535      -0.88623721
 C       2.72174686      -3.13054677      -0.81694044
 C       3.65906158      -3.57411907      -1.74337107
 H       3.49898638      -4.61024234      -2.05291239
 C       4.74851652      -2.86741538      -2.25737153
 C       5.16875882      -1.58476528      -1.76544231
 H       4.60803182      -1.04575734      -0.97517081
 C       5.60748654      -3.39768803      -3.26282193
 H       5.33669193      -4.36707045      -3.67069042
 C       6.35411237      -1.00792165      -2.13342961
 H       6.70322073      -0.06290534      -1.67312964
 C       6.76224467      -2.84766682      -3.65158777
 H       7.38357640      -3.33013215      -4.39137213
 C       7.22073023      -1.55349551      -3.20075361
 O       8.20512089      -0.95442778      -3.68336735
 C      -0.25150675      -3.44921397       1.18850990
 H      -0.46932473      -4.51731528       1.06050987
 H      -1.12472936      -2.84890747       0.90330559
 C       1.25566232      -0.92003317       1.68939433
 H       1.15765266      -1.40969614       2.66190313
 H       0.26163238      -0.45813698       1.58506548
 H       1.98097875      -0.11970230       1.72443330
 H      -0.03644382      -3.29144175       2.26520011
27
step 35
 C       1.63968663      -1.85444118       0.61908287
 N       2.70146031      -1.88911122      -0.13285260
 N       0.84011509      -3.01459412       0.40571291
 C       1.55684910      -3.89693503      -0.50045248
 O       1.02859944      -4.94967616      -0.88593089
 C       2.72133864      -3.13223217      -0.81597201
 C       3.66162576      -3.57415622      -1.74009327
 H       3.49488397      -4.60740605      -2.05488908
 C       4.74770703      -2.86883572      -2.25997372
 C       5.16850033      -1.58552189      -1.76568638
 H       4.60367693      -1.04248720      -0.97236456
 C       5.60791939      -3.39945829      -3.26268997
 H       5.34083543      -4.35837818      -3.67893607
 C       6.35414863      -1.00904719      -2.13229293
 H       6.70610887      -0.05632038      -1.67368571
 C       6.76230993      -2.84678267      -3.65109008
 H       7.38014917      -3.33150478      -4.38817514
 C       7.22073989      -1.55416277      -3.20195445
 O       8.20348223      -0.95288483      -3.68468785
 C      -0.24914197      -3.45042629       1.18989243
 H      -0.47051419      -4.51962606       1.07081496
 H      -1.11723140      -2.84969152       0.90173592
 C       1.25605648      -0.92192150       1.68901183
 H       1.16036378      -1.41585642       2.65299445
 H       0.26503967      -0.46032585       1.59117869
 H       1.97291605      -0.13074112       1.72987175
 H      -0.03583051      -3.28084507       2.27207672
27
step 36
 C       1.63939800      -1.85196548       0.61983753
 N       2.69999325      -1.89154804      -0.13387504
 N       0.83902918      -3.01050390       0.40501759
 C       1.55806760      -3.89637690      -0.50211314
 O       1.02854727      -4.94840961      -0.88557747
 C       2.72096958      -3.13384991      -0.81505771
 C       3.66411570      -3.57416346      -1.73676978
 H       3.49093263      -4.60408821      -2.05733464
 C       4.74700674      -2.87006561      -2.26255162
 C       5.16830530      -1.58615657      -1.76577458
 H       4.59979457      -1.04084942      -0.97109129
 C       5.60817929      -3.40142147      -3.26243911
 H       5.34457177      -4.35059913      -3.68751594
 C       6.35429374      -1.01008812      -2.13124670
 H       6.70790461      -0.05136915      -1.67506586
 C       6.76256621      -2.84576325      -3.65070426
 H       7.37702445      -3.33335346      -4.38570195
 C       7.22069395      -1.55469072      -3.20305090
 O       8.20175576      -0.95141027      -3.68593223
 C      -0.24693791      -3.45161076       1.19151452
 H      -0.47114282      -4.52138029       1.08028296
 H      -1.11053034      -2.85089343       0.90071211
 C       1.25630357      -0.92371649       1.68867680
 H       1.16424339      -1.42261860       2.64454175
 H       0.26857263      -0.46267066       1.59590422
 H       1.96621243      -0.14053961       1.73584083
 H      -0.03570189      -3.27043036       2.27780442
27
step 37
 C       1.63900024      -1.84996030       0.62037490
 N       2.69847001      -1.89405520      -0.13483414
 N       0.83834338      -3.00640523       0.40415769
 C       1.55890855      -3.89573800      -0.50361246
 O       1.02863415      -4.94703999      -0.88517893
 C       2.72065035      -3.13539034      -0.81419970
 C       3.66652068      -3.57414724      -1.73341249
 H       3.48717344      -4.60035965      -2.06023040
 C       4.74641839      -2.87109447      -2.26508976
 C       5.16816630      -1.58666180      -1.76569770
 H       4.59652443      -1.04097865      -0.97152972
 C       5.60828618      -3.40353335      -3.26206694
 H       5.34774107      -4.34419600      -3.69654486
 C       6.35455375      -1.01102431      -2.13028695
 H       6.70850147      -0.04832371      -1.67735701
 C       6.76299696      -2.84461715      -3.65042165
 H       7.37432684      -3.33572049      -4.38408648
 C       7.22059072      -1.55507118      -3.20403281
 O       8.19994389      -0.95000358      -3.68710210
 C      -0.24488309      -3.45275451       1.19340548
 H      -0.47112678      -4.52253767       1.08889505
 H      -1.10488636      -2.85244730       0.90020735
 C       1.25637555      -0.92545238       1.68838097
 H       1.16921359      -1.43016938       2.63694723
 H       0.27196011      -0.46507737       1.59919201
 H       1.96152439      -0.14838799       1.74235762
 H      -0.03607935      -3.26033016       2.28206132
27
step 38
 C       1.63849886      -1.84844332       0.62067040
 N       2.69690034      -1.89661537      -0.13572361
 N       0.83805304      -3.00231970       0.40313241
 C       1.55936135      -3.89501530      -0.50493825
 O       1.02885638      -4.94557322      -0.88473763
 C       2.72039014      -3.13684507      -0.81339973
 C       3.66883184      -3.57411194      -1.73003398
 H       3.48364131      -4.59630550      -2.06355754
 C       4.74594354      -2.87191373      -2.26757272
 C       5.16808195      -1.58703781      -1.76545659
 H       4.59393092      -1.04292082      -0.97374031
 C       5.60826236      -3.40575527      -3.26157564
 H       5.35021438      -4.33952462      -3.70609926
 C       6.35492918      -1.01184576      -2.12941338
 H       6.70785029      -0.04731766      -1.68058144
 C       6.76358414      -2.84335872      -3.65023623
 H       7.37213699      -3.33860820      -4.38340604
 C       7.22042825      -1.55529834      -3.20489124
 O       8.19805022      -0.94866314      -3.68819944
 C      -0.24296625      -3.45384183       1.19558334
 H      -0.47039691      -4.52309719       1.09663639
 H      -1.10052284      -2.85429671       0.90018892
 C       1.25625732      -0.92715552       1.68811835
 H       1.17518280      -1.43865059       2.63054065
 H       0.27494200      -0.46745378       1.60102258
 H       1.95935024      -0.15374643       1.74942965
 H      -0.03695898      -3.25066462       2.28463327
27
step 39
 C       1.63790071      -1.84742557       0.62070357
 N       2.69529542      -1.89921126      -0.13653820
 N       0.83814662      -2.99827014       0.40194420
 C       1.55942041      -3.89420396      -0.50608016
 O       1.02920885      -4.94401683      -0.88425625
 C       2.72019637      -3.13820714      -0.81265907
 C       3.67104219      -3.57406020      -1.72664759
 H       3.48036516      -4.59202031      -2.06729614
 C       4.74558264      -2.87251701      -2.26998525
 C       5.16805700      -1.58729268      -1.76506223
 H       4.59200137      -1.04663233      -0.97766458
 C       5.60813094      -3.40805776      -3.26097355
 H       5.35190555      -4.33679310      -3.71619527
 C       6.35541499      -1.01255283      -2.12862943
 H       6.70595995      -0.04834290      -1.68469737
 C       6.76430929      -2.84200826      -3.65014546
 H       7.37048542      -3.34197376      -4.38367373
 C       7.22020434      -1.55536873      -3.20561853
 O       8.19607947      -0.94738633      -3.68922657
 C      -0.24117747      -3.45485388       1.19805400
 H      -0.46890003      -4.52309844       1.10349614
 H      -1.09761072      -2.85640436       0.90062233
 C       1.25595125      -0.92883871       1.68788827
 H       1.18205043      -1.44813767       2.62554607
 H       0.27729009      -0.46971739       1.60140885
 H       1.95995082      -0.15633078       1.75704596
 H      -0.03831161      -3.24153593       2.28542067
27
step 40
 C       1.63721383      -1.84691114       0.62045872
 N       2.69366794      -1.90182567      -0.13727385
 N       0.83860582      -2.99428062       0.40059862
 C       1.55908523      -3.89329730      -0.50702968
 O       1.02968508      -4.94237993      -0.88373779
 C       2.72007456      -3.13947114      -0.81197852
 C       3.67314664      -3.57399333      -1.72326748
 H       3.47736840      -4.58760243      -2.07142384
 C       4.74533503      -2.87290015      -2.27231234
 C       5.16810232      -1.58744210      -1.76453542
 H       4.59064576      -1.05198143      -0.98312724
 C       5.60791465      -3.41042272      -3.26027613
 H       5.35277823      -4.33603828      -3.72677296
 C       6.35600077      -1.01315626      -2.12794208
 H       6.70289684      -0.05124936      -1.68960080
 C       6.76515421      -2.84059171      -3.65015055
 H       7.36935218      -3.34572852      -4.38483779
 C       7.21991651      -1.55528131      -3.20620837
 O       8.19403737      -0.94616955      -3.69018616
 C      -0.23950920      -3.45576867       1.20081076
 H      -0.46659942      -4.52261988       1.10946767
 H      -1.09625648      -2.85875947       0.90147516
 C       1.25547926      -0.93049808       1.68769764
 H       1.18970988      -1.45862289       2.62205838
 H       0.27882769      -0.47180306       1.60039678
 H       1.96330379      -0.15616062       1.76516769
 H      -0.04008360      -3.23302366       2.28444143
27
step 41
 C       1.63644727      -1.84689687       0.61992531
 N       2.69203207      -1.90444169      -0.13792777
 N       0.83940583      -2.99037631       0.39910402
 C       1.55836034      -3.89228683      -0.50778018
 O       1.03027730      -4.94067308      -0.88318550
 C       2.72002820      -3.14063325      -0.81135838
 C       3.67514191      -3.57391168      -1.71990872
 H       3.47466976      -4.58314814      -2.07591435
 C       4.74519910      -2.87306135      -2.27453947
 C       5.16823462      -1.58750899      -1.76390632
 H       4.58969865      -1.05875225      -0.98984162
 C       5.60763512      -3.41284378      -3.25950614
 H       5.35284652      -4.33712531      -3.73769077
 C       6.35667101      -1.01367690      -2.12736169
 H       6.69878259      -0.05574800      -1.69512874
 C       6.76610117      -2.83913995      -3.65025613
 H       7.36867225      -3.34974235      -4.38678779
 C       7.21956204      -1.55503741      -3.20665582
 O       8.19193056      -0.94500829      -3.69108117
 C      -0.23795689      -3.45656159       1.20383422
 H      -0.46347425      -4.52177404       1.11454905
 H      -1.09649491      -2.86138192       0.90271983
 C       1.25488116      -0.93211393       1.68756198
 H       1.19804957      -1.47000722       2.62003475
 H       0.27944565      -0.47366997       1.59806470
 H       1.96910722      -0.15355257       1.77372161
 H      -0.04219831      -3.22518081       2.28183078
27
step 42
 C       1.63561079      -1.84737232       0.61909834
 N       2.69040342      -1.90704275      -0.13849844
 N       0.84051571      -2.98658344       0.39747137
 C       1.55725515      -3.89116244      -0.50832690
 O       1.03097654      -4.93890816      -0.88260289
 C       2.72005865      -3.14169129      -0.81079845
 C       3.67702643      -3.57381515      -1.71658732
 H       3.47228411      -4.57874594      -2.08073596
 C       4.74517236      -2.87300121      -2.27665271
 C       5.16847591      -1.58752280      -1.76321333
 H       4.58892454      -1.06665263      -0.99742039
 C       5.60731257      -3.41532479      -3.25869282
 H       5.35216936      -4.33977018      -3.74873203
 C       6.35740563      -1.01414498      -2.12690155
 H       6.69378978      -0.06141900      -1.70106470
 C       6.76713277      -2.83768761      -3.65046945
 H       7.36834572      -3.35385213      -4.38936689
 C       7.21913803      -1.55464072      -3.20695745
 O       8.18976652      -0.94389726      -3.69191478
 C      -0.23651938      -3.45720643       1.20709258
 H      -0.45951813      -4.52069984       1.11874370
 H      -1.09828783      -2.86432229       0.90433510
 C       1.25420983      -0.93365500       1.68750471
 H       1.20695193      -1.48210271       2.61930288
 H       0.27911248      -0.47530658       1.59452138
 H       1.97683094      -0.14906154       1.78259900
 H      -0.04455805      -3.21803086       2.27783802
27
step 43
 C       1.63471471      -1.84831975       0.61797849
 N       2.68879885      -1.90961281      -0.13898557
 N       0.84189883      -2.98292914       0.39571382
 C       1.55578374      -3.88991264      -0.50866700
 O       1.03177279      -4.93709822      -0.88199363
 C       2.72016516      -3.14264469      -0.81029806
 C       3.67880025      -3.57370355      -1.71332026
 H       3.47022350      -4.57447157      -2.08585014
 C       4.74525167      -2.87272281      -2.27863899
 C       5.16885241      -1.58751821      -1.76250152
 H       4.58802912      -1.07532775      -1.00539420
 C       5.60696601      -3.41787687      -3.25787012
 H       5.35084016      -4.34357975      -3.75962197
 C       6.35818083      -1.01459872      -2.12657727
 H       6.68813435      -0.06772814      -1.70714758
 C       6.76823154      -2.83627163      -3.65079921
 H       7.36825093      -3.35787348      -4.39238788
 C       7.21864150      -1.55409720      -3.20711131
 O       8.18755333      -0.94283051      -3.69269036
 C      -0.23519874      -3.45767685       1.21054242
 H      -0.45473679      -4.51955206       1.12206131
 H      -1.10152879      -2.86765786       0.90630613
 C       1.25352442      -0.93508470       1.68755490
 H       1.21629148      -1.49464537       2.61958464
 H       0.27787729      -0.47673297       1.58990289
 H       1.98579823      -0.14338987       1.79166061
 H      -0.04704690      -3.21156608       2.27281908
27
step 44
 C       1.63376972      -1.84971432       0.61657215
 N       2.68723634      -1.91213640      -0.13939012
 N       0.84351345      -2.97944122       0.39384651
 C       1.55396459      -3.88852498      -0.50879955
 O       1.03265512      -4.93525722      -0.88136155
 C       2.72034489      -3.14349445      -0.80985613
 C       3.68046483      -3.57357691      -1.71012547
 H       3.46849796      -4.57038416      -2.09121041
 C       4.74543339      -2.87223172      -2.28048630
 C       5.16939278      -1.58753329      -1.76181994
 H       4.58667885      -1.08438130      -1.01324124
 C       5.60661348      -3.42051474      -3.25707444
 H       5.34897417      -4.34810013      -3.77005155
 C       6.35897027      -1.01508191      -2.12640568
 H       6.68206355      -0.07405549      -1.71308556
 C       6.76937947      -2.83492966      -3.65125428
 H       7.36825858      -3.36161394      -4.39565093
 C       7.21806943      -1.55341501      -3.20711707
 O       8.18529958      -0.94180154      -3.69341141
 C      -0.23399990      -3.45794811       1.21413012
 H      -0.44914515      -4.51848890       1.12451895
 H      -1.10605286      -2.87148512       0.90862324
 C       1.25288375      -0.93636736       1.68774398
 H       1.22593322      -1.50731617       2.62053025
 H       0.27586488      -0.47799977       1.58436832
 H       1.99527408      -0.13729119       1.80074600
 H      -0.04953449      -3.20574780       2.26722289
27
step 45
 C       1.63278671      -1.85152441       0.61489133
 N       2.68573473      -1.91459873      -0.13971410
 N       0.84531337      -2.97614801       0.39188616
 C       1.55182016      -3.88698650      -0.50872559
 O       1.03361192      -4.93339984      -0.88071050
 C       2.72059301      -3.14424300      -0.80947118
 C       3.68202294      -3.57343575      -1.70702175
 H       3.46711619      -4.56652394      -2.09676178
 C       4.74571362      -2.87153608      -2.28218388
 C       5.17012544      -1.58760690      -1.76121797
 H       4.58453106      -1.09340520      -1.02042934
 C       5.60627241      -3.42325314      -3.25634220
 H       5.34669575      -4.35286476      -3.77970353
 C       6.35974679      -1.01564030      -2.12640332
 H       6.67583877      -0.07973969      -1.71857644
 C       6.77055755      -2.83369843      -3.65184235
 H       7.36824523      -3.36488620      -4.39896089
 C       7.21741897      -1.55260434      -3.20697603
 O       8.18301418      -0.94080344      -3.69408148
 C      -0.23292976      -3.45799897       1.21779403
 H      -0.44276404      -4.51765808       1.12614237
 H      -1.11165026      -2.87590999       0.91127981
 C       1.25234107      -0.93747299       1.68810202
 H       1.23573211      -1.51976655       2.62175669
 H       0.27326370      -0.47918385       1.57809486
 H       2.00454124      -0.13148921       1.80968456
 H      -0.05188114      -3.20050939       2.26156936
27
step 46
 C       1.63177671      -1.85371202       0.61295330
 N       2.68431345      -1.91698583      -0.13996054
 N       0.84724863      -2.97307798       0.38985082
 C       1.54937646      -3.88528432      -0.50844814
 O       1.03463104      -4.93154113      -0.88004437
 C       2.72090292      -3.14489410      -0.80914142
 C       3.68347841      -3.57328113      -1.70402863
 H       3.46608596      -4.56291165      -2.10244077
 C       4.74608834      -2.87064658      -2.28372247
 C       5.17107505      -1.58777549      -1.76074073
 H       4.58127413      -1.10201638      -1.02646926
 C       5.60595983      -3.42610374      -3.25570751
 H       5.34412748      -4.35743569      -3.78827669
 C       6.36048446      -1.01631648      -2.12658432
 H       6.66971322      -0.08413858      -1.72333419
 C       6.77174546      -2.83261231      -3.65256886
 H       7.36810477      -3.36752021      -4.40214263
 C       7.21668751      -1.55167727      -3.20669118
 O       8.18070617      -0.93982908      -3.69470413
 C      -0.23199615      -3.45781323       1.22146761
 H      -0.43561698      -4.51718315       1.12696750
 H      -1.11808208      -2.88103707       0.91426979
 C       1.25194092      -0.93838015       1.68865441
 H       1.24553435      -1.53164448       2.62288478
 H       0.27030845      -0.48038118       1.57127217
 H       2.01295539      -0.12662053       1.81830606
 H      -0.05394468      -3.19576284       2.25641671
27
step 47
 C       1.63075087      -1.85623335       0.61078024
 N       2.68299225      -1.91928457      -0.14013328
 N       0.84926639      -2.97025940       0.38775954
 C       1.54666249      -3.88340630      -0.50797225
 O       1.03570009      -4.92969623      -0.87936691
 C       2.72126638      -3.14545263      -0.80886483
 C       3.68483605      -3.57311463      -1.70116617
 H       3.46541412      -4.55954973      -2.10817615
 C       4.74655363      -2.86957639      -2.28509444
 C       5.17225855      -1.58806967      -1.76042406
 H       4.57667395      -1.10989611      -1.03097290
 C       5.60569243      -3.42907283      -3.25520029
 H       5.34138148      -4.36143523      -3.79550594
 C       6.36116090      -1.01714403      -2.12695805
 H       6.66390704      -0.08670159      -1.72711971
 C       6.77292141      -2.83170193      -3.65343605
 H       7.36775748      -3.36937322      -4.40505350
 C       7.21587288      -1.55064755      -3.20626726
 O       8.17838453      -0.93887127      -3.69528285
 C      -0.23120653      -3.45738094       1.22508343
 H      -0.42772748      -4.51715114       1.12704198
 H      -1.12509641      -2.88695920       0.91758530
 C       1.25171777      -0.93907724       1.68941923
 H       1.25518013      -1.54261840       2.62357067
 H       0.26725949      -0.48169797       1.56409660
 H       2.01997952      -0.12320069       1.82644922
 H      -0.05558881      -3.19140924       2.25231780
27
step 48
 C       1.62972044      -1.85903952       0.60839861
 N       2.68179083      -1.92148278      -0.14023684
 N       0.85131170      -2.96771990       0.38563213
 C       1.54370968      -3.88134167      -0.50730507
 O       1.03680660      -4.92788001      -0.87868170
 C       2.72167382      -3.14592441      -0.80863919
 C       3.68610149      -3.57293821      -1.69845468
 H       3.46510634      -4.55642508      -2.11389045
 C       4.74710580      -2.86834116      -2.28629394
 C       5.17368131      -1.58851131      -1.76029001
 H       4.57061815      -1.11682409      -1.03370531
 C       5.60548654      -3.43215986      -3.25484482
 H       5.33855332      -4.36456789      -3.80117757
 C       6.36175937      -1.01814152      -2.12752673
 H       6.65858386      -0.08704253      -1.72977085
 C       6.77406214      -2.83099322      -3.65444235
 H       7.36715628      -3.37033753      -4.40759261
 C       7.21497348      -1.54953040      -3.20571074
 O       8.17605804      -0.93792289      -3.69582102
 C      -0.23056657      -3.45669880       1.22857790
 H      -0.41911724      -4.51760334       1.12642644
 H      -1.13244363      -2.89374833       0.92121449
 C       1.25169591      -0.93956259       1.69040556
 H       1.26450749      -1.55239702       2.62353011
 H       0.26438150      -0.48324114       1.55676528
 H       2.02520250      -0.12160734       1.83396827
 H      -0.05669266      -3.18735275       2.24976770
27
step 49
 C       1.62869681      -1.86207734       0.60583853
 N       2.68072853      -1.92356934      -0.14027624
 N       0.85332845      -2.96548594       0.38348890
 C       1.54055127      -3.87908179      -0.50645585
 O       1.03793832      -4.92610674      -0.87799206
 C       2.72211460      -3.14631595      -0.80846220
 C       3.68728099      -3.57275394      -1.69591438
 H       3.46516654      -4.55351309      -2.11950207
 C       4.74774150      -2.86695881      -2.28731699
 C       5.17533449      -1.58911161      -1.76034399
 H       4.56314735      -1.12269901      -1.03461778
 C       5.60535797      -3.43535658      -3.25465869
 H       5.33571774      -4.36663404      -3.80513968
 C       6.36227032      -1.01930793      -2.12828376
 H       6.65383431      -0.08499686      -1.73122507
 C       6.77514311      -2.83050655      -3.65558198
 H       7.36629037      -3.37034580      -4.40970681
 C       7.21398846      -1.54834225      -3.20502985
 O       8.17373506      -0.93697709      -3.69632184
 C      -0.23007881      -3.45577000       1.23189629
 H      -0.40980556      -4.51853030       1.12519537
 H      -1.13988994      -2.90144838       0.92514000
 C       1.25188998      -0.93984407       1.69161245
 H       1.27335673      -1.56074485       2.62255544
 H       0.26192336      -0.48510923       1.54947051
 H       2.02834775      -0.12207413       1.84073769
 H      -0.05716049      -3.18351643       2.24914849
27
step 50
 C       1.62769149      -1.86529033       0.60313303
 N       2.67982399      -1.92553421      -0.14025679
 N       0.85526027      -2.96358219       0.38135046
 C       1.53722167      -3.87662084      -0.50543602
 O       1.03908345      -4.92438970      -0.87730090
 C       2.72257730      -3.14663423      -0.80833154
 C       3.68838137      -3.57256370      -1.69356500
 H       3.46559614      -4.55078247      -2.12492796
 C       4.74845786      -2.86544943      -2.28816150
 C       5.17719430      -1.58987094      -1.76057429
 H       4.55446418      -1.12754002      -1.03385248
 C       5.60532185      -3.43864667      -3.25465216
 H       5.33292599      -4.36753743      -3.80730889
 C       6.36269181      -1.02062068      -2.12921316
 H       6.64967096      -0.08064804      -1.73152851
 C       6.77613880      -2.83025627      -3.65684485
 H       7.36518646      -3.36937378      -4.41139363
 C       7.21291784      -1.54710046      -3.20423457
 O       8.17142341      -0.93602743      -3.69678824
 C      -0.22974137      -3.45460346       1.23499704
 H      -0.39981008      -4.51987194       1.12343718
 H      -1.14722876      -2.91007024       0.92933790
 C       1.25230563      -0.93993844       1.69302867
 H       1.28157478      -1.56749338       2.62052626
 H       0.26010076      -0.48738458       1.54239451
 H       2.02927683      -0.12468946       1.84665574
 H      -0.05692999      -3.17985686       2.25068101
27
step 51
 C       1.62671610      -1.86861971       0.60031723
 N       2.67909483      -1.92736850      -0.14018397
 N       0.85705147      -2.96203093       0.37923748
 C       1.53375583      -3.87395653      -0.50425920
 O       1.04023085      -4.92274089      -0.87661071
 C       2.72305007      -3.14688644      -0.80824492
 C       3.68940982      -3.57236888      -1.69142541
 H       3.46639328      -4.54820046      -2.13008660
 C       4.74925249      -2.86383496      -2.28882731
 C       5.17922344      -1.59078016      -1.76095410
 H       4.54491688      -1.13146904      -1.03171725
 C       5.60539250      -3.44200583      -3.25482786
 H       5.33020415      -4.36728792      -3.80767364
 C       6.36302889      -1.02203694      -2.13029027
 H       6.64603581      -0.07431506      -1.73082879
 C       6.77702312      -2.83025048      -3.65821670
 H       7.36390761      -3.36744061      -4.41270108
 C       7.21176265      -1.54582307      -3.20333653
 O       8.16913017      -0.93506800      -3.69722290
 C      -0.22954707      -3.45321287       1.23785485
 H      -0.38914852      -4.52152257       1.12125334
 H      -1.15428966      -2.91958909       0.93377699
 C       1.25294011      -0.93987078       1.69463282
 H       1.28901943      -1.57254874       2.61741518
 H       0.25908216      -0.49012702       1.53570463
 H       2.02799131      -0.12939707       1.85164732
 H      -0.05597771      -3.17637418       2.25439368
27
step 52
 C       1.62578230      -1.87200559       0.59742761
 N       2.67855732      -1.92906456      -0.14006321
 N       0.85864804      -2.96085129       0.37717057
 C       1.53018864      -3.87109066      -0.50294125
 O       1.04137024      -4.92117065      -0.87592342
 C       2.72352092      -3.14707978      -0.80820021
 C       3.69037377      -3.57217004      -1.68951319
 H       3.46755196      -4.54573786      -2.13490103
 C       4.75012362      -2.86213899      -2.28931611
 C       5.18137437      -1.59182314      -1.76144550
 H       4.53496183      -1.13467974      -1.02863798
 C       5.60558327      -3.44540206      -3.25518072
 H       5.32755223      -4.36600068      -3.80629476
 C       6.36329195      -1.02349787      -2.13148375
 H       6.64281811      -0.06650518      -1.72935355
 C       6.77777000      -2.83049110      -3.65967949
 H       7.36254982      -3.36460658      -4.41372435
 C       7.21052498      -1.54452850      -3.20234898
 O       8.16686161      -0.93409362      -3.69762816
 C      -0.22948287      -3.45161575       1.24046159
 H      -0.37784143      -4.52334040       1.11875645
 H      -1.16094495      -2.92994388       0.93841849
 C       1.25378259      -0.93967400       1.69639373
 H       1.29556298      -1.57589622       2.61328966
 H       0.25897842      -0.49336956       1.52954917
 H       2.02463415      -0.13599672       1.85566642
 H      -0.05432028      -3.17311489       2.26011619
27
step 53
 C       1.62490159      -1.87538819       0.59450115
 N       2.67822609      -1.93061598      -0.13989976
 N       0.85999854      -2.96005851       0.37517007
 C       1.52655433      -3.86802969      -0.50150023
 O       1.04249242      -4.91968745      -0.87524035
 C       2.72397805      -3.14722118      -0.80819543
 C       3.69128075      -3.57196668      -1.68784421
 H       3.46906144      -4.54337354      -2.13930186
 C       4.75107002      -2.86038644      -2.28963139
 C       5.18359370      -1.59297961      -1.76200429
 H       4.52511462      -1.13740147      -1.02510100
 C       5.60590647      -3.44879633      -3.25569828
 H       5.32494427      -4.36389141      -3.80330314
 C       6.36349470      -1.02493468      -2.13275819
 H       6.63987715      -0.05784494      -1.72738038
 C       6.77835401      -2.83097422      -3.66121209
 H       7.36123626      -3.36096831      -4.41459923
 C       7.20920803      -1.54323528      -3.20128657
 O       8.16462304      -0.93309989      -3.69800599
 C      -0.22952986      -3.44983276       1.24282508
 H      -0.36591520      -4.52516012       1.11606730
 H      -1.16711379      -2.94103878       0.94321599
 C       1.25481427      -0.93938845       1.69827120
 H       1.30109552      -1.57760181       2.60831042
 H       0.25983621      -0.49711563       1.52405392
 H       2.01949026      -0.14414551       1.85869828
 H      -0.05201125      -3.17016637       2.26749990
27
step 54
 C       1.62408514      -1.87870907       0.59157458
 N       2.67811383      -1.93201762      -0.13969852
 N       0.86105508      -2.95966317       0.37325592
 C       1.52288604      -3.86478510      -0.49995639
 O       1.04358936      -4.91829766      -0.87456220
 C       2.72441014      -3.14731711      -0.80822890
 C       3.69213815      -3.57175700      -1.68643228
 H       3.47090586      -4.54109802      -2.14322980
 C       4.75209102      -2.85860320      -2.28977825
 C       5.18582657      -1.59422791      -1.76258473
 H       4.51590020      -1.13986606      -1.02159761
 C       5.60637324      -3.45214358      -3.25636124
 H       5.32232959      -4.36126698      -3.79889378
 C       6.36365196      -1.02627517      -2.13407683
 H       6.63706478      -0.04900604      -1.72520526
 C       6.77875127      -2.83169073      -3.66279122
 H       7.36010906      -3.35665127      -4.41549212
 C       7.20781609      -1.54196174      -3.20016524
 O       8.16241874      -0.93208329      -3.69835799
 C      -0.22966377      -3.44788726       1.24496614
 H      -0.35340507      -4.52680709       1.11331132
 H      -1.17276372      -2.95274663       0.94811576
 C       1.25600855      -0.93906143       1.70021682
 H       1.30552761      -1.57781041       2.60272649
 H       0.26163479      -0.50133808       1.51931932
 H       2.01298403      -0.15336223       1.86076069
 H      -0.04913428      -3.16764458       2.27605978
27
step 55
 C       1.62334350      -1.88191244       0.58868369
 N       2.67823110      -1.93326565      -0.13946392
 N       0.86177420      -2.95967047       0.37144752
 C       1.51921532      -3.86137362      -0.49833205
 O       1.04465433      -4.91700543      -0.87388899
 C       2.72480663      -3.14737345      -0.80829922
 C       3.69295306      -3.57153787      -1.68528886
 H       3.47306404      -4.53891591      -2.14663774
 C       4.75318645      -2.85681582      -2.28976332
 C       5.18802069      -1.59554700      -1.76314339
 H       4.50780978      -1.14228180      -1.01857885
 C       5.60699330      -3.45539426      -3.25714452
 H       5.31963596      -4.35850969      -3.79331545
 C       6.36377792      -1.02744955      -2.13540400
 H       6.63424384      -0.04063941      -1.72311484
 C       6.77894038      -2.83262723      -3.66439274
 H       7.35931860      -3.35179983      -4.41658659
 C       7.20635449      -1.54072575      -3.19900195
 O       8.16025193      -0.93104129      -3.69868536
 C      -0.22985576      -3.44580501       1.24691442
 H      -0.34035763      -4.52811178       1.11061458
 H      -1.17790932      -2.96491394       0.95305755
 C       1.25733156      -0.93874639       1.70217535
 H       1.30879246      -1.57674009       2.59686585
 H       0.26428627      -0.50597953       1.51541851
 H       2.00566961      -0.16303880       1.86190379
 H      -0.04579399      -3.16567793       2.28522872
27
step 56
 C       1.62268632      -1.88494630       0.58586263
 N       2.67858610      -1.93435753      -0.13919977
 N       0.86211771      -2.96007953       0.36976358
 C       1.51557182      -3.85781730      -0.49665144
 O       1.04568195      -4.91581260      -0.87322009
 C       2.72515796      -3.14739524      -0.80840537
 C       3.69373209      -3.57130477      -1.68442277
 H       3.47550967      -4.53684707      -2.14949218
 C       4.75435655      -2.85505115      -2.28959452
 C       5.19012943      -1.59691788      -1.76364207
 H       4.50126803      -1.14481596      -1.01642299
 C       5.60777458      -3.45849648      -3.25801865
 H       5.31677535      -4.35605342      -3.78685502
 C       6.36388470      -1.02839500      -2.13670697
 H       6.63130097      -0.03332427      -1.72136511
 C       6.77890354      -2.83376714      -3.66599309
 H       7.35901086      -3.34656533      -4.41806702
 C       7.20482950      -1.53954440      -3.19781444
 O       8.15812471      -0.92997234      -3.69898887
 C      -0.23007370      -3.44361388       1.24870422
 H      -0.32683273      -4.52892317       1.10809985
 H      -1.18260778      -2.97736759       0.95797591
 C       1.25874360      -0.93850136       1.70408655
 H       1.31084749      -1.57467084       2.59112048
 H       0.26763951      -0.51095408       1.51239635
 H       1.99820799      -0.17246518       1.86220698
 H      -0.04210625      -3.16439066       2.29441364
27
step 57
 C       1.62212200      -1.88776362       0.58314343
 N       2.67918446      -1.93529199      -0.13890920
 N       0.86205348      -2.96088284       0.36822196
 C       1.51198301      -3.85414335      -0.49494052
 O       1.04666816      -4.91471881      -0.87255425
 C       2.72545580      -3.14738664      -0.80854673
 C       3.69448109      -3.57105193      -1.68384009
 H       3.47821187      -4.53492636      -2.15177379
 C       4.75560186      -2.85333604      -2.28928084
 C       5.19211406      -1.59832440      -1.76404962
 H       4.49661051      -1.14758468      -1.01541494
 C       5.60872261      -3.46139903      -3.25895182
 H       5.31365307      -4.35435061      -3.77981605
 C       6.36398147      -1.02905887      -2.13795720
 H       6.62815426      -0.02753337      -1.72016706
 C       6.77862779      -2.83509189      -3.66757095
 H       7.35931336      -3.34109318      -4.42010028
 C       7.20324821      -1.53843378      -3.19662091
 O       8.15603807      -0.92887593      -3.69926895
 C      -0.23028362      -3.44134340       1.25037050
 H      -0.31290439      -4.52912019       1.10588285
 H      -1.18695122      -2.98992274       0.96280236
 C       1.26020200      -0.93838625       1.70588787
 H       1.31167517      -1.57192688       2.58592438
 H       0.27148766      -0.51615033       1.51026960
 H       1.99132438      -0.18087402       1.86177159
 H      -0.03818902      -3.16388828       2.30304552
27
step 58
 C       1.62165744      -1.89032325       0.58055544
 N       2.68002916      -1.93606900      -0.13859458
 N       0.86155604      -2.96206580       0.36683953
 C       1.50847402      -3.85038381      -0.49322667
 O       1.04761022      -4.91372158      -0.87188968
 C       2.72569317      -3.14735081      -0.80872312
 C       3.69520499      -3.57077256      -1.68354403
 H       3.48113593      -4.53320200      -2.15347723
 C       4.75692310      -2.85169695      -2.28883217
 C       5.19394533      -1.59975360      -1.76434317
 H       4.49406940      -1.15064803      -1.01573458
 C       5.60983958      -3.46405496      -3.25991214
 H       5.31018020      -4.35383062      -3.77249258
 C       6.36407390      -1.02940074      -2.13913117
 H       6.62475684      -0.02361156      -1.71967778
 C       6.77810614      -2.83658214      -3.66910892
 H       7.36032118      -3.33551032      -4.42281748
 C       7.20161834      -1.53740872      -3.19543975
 O       8.15399198      -0.92775257      -3.69952561
 C      -0.23045139      -3.43902408       1.25194582
 H      -0.29866105      -4.52862068       1.10406904
 H      -1.19105563      -3.00239172       0.96746810
 C       1.26166563      -0.93845859       1.70751803
 H       1.31128313      -1.56885187       2.58172370
 H       0.27557994      -0.52143574       1.50902846
 H       1.98574193      -0.18750930       1.86070851
 H      -0.03415464      -3.16424663       2.31061925
27
step 59
 C       1.62129778      -1.89259073       0.57812504
 N       2.68112040      -1.93668980      -0.13825741
 N       0.86060716      -2.96360654       0.36563196
 C       1.50506750      -3.84657498      -0.49153832
 O       1.04850661      -4.91281653      -0.87122413
 C       2.72586462      -3.14728983      -0.80893480
 C       3.69590756      -3.57045914      -1.68353499
 H       3.48424442      -4.53173261      -2.15461010
 C       4.75832106      -2.85015969      -2.28825908
 C       5.19560439      -1.60119587      -1.76450869
 H       4.49376518      -1.15400841      -1.01745110
 C       5.61112327      -3.46642561      -3.26087022
 H       5.30628876      -4.35485299      -3.76514089
 C       6.36416393      -1.02939364      -2.14021092
 H       6.62109781      -0.02176397      -1.71999563
 C       6.77733862      -2.83821882      -3.67059495
 H       7.36208479      -3.32991490      -4.42629776
 C       7.19994809      -1.53648253      -3.19428919
 O       8.15198537      -0.92660373      -3.69975856
 C      -0.23054454      -3.43668671       1.25345789
 H      -0.28420488      -4.52738764       1.10275092
 H      -1.19504710      -3.01459322       0.97190758
 C       1.26310104      -0.93876813       1.70892139
 H       1.30970344      -1.56577776       2.57893945
 H       0.27963759      -0.52666245       1.50863958
 H       1.98209491      -0.19171589       1.85912171
 H      -0.03010374      -3.16550458       2.31672240
27
step 60
 C       1.62104620      -1.89453885       0.57587532
 N       2.68245555      -1.93715677      -0.13789834
 N       0.85919620      -2.96547593       0.36461350
 C       1.50178358      -3.84275669      -0.48990451
 O       1.04935689      -4.91199766      -0.87055503
 C       2.72596626      -3.14720474      -0.80918251
 C       3.69659127      -3.57010382      -1.68381065
 H       3.48749843      -4.53058311      -2.15519114
 C       4.75979644      -2.84874913      -2.28757255
 C       5.19708343      -1.60264503      -1.76454136
 H       4.49570238      -1.15761071      -1.02052108
 C       5.61256585      -3.46848450      -3.26180141
 H       5.30194738      -4.35766238      -3.75795360
 C       6.36424969      -1.02902474      -2.14118429
 H       6.61720178      -0.02205034      -1.72115780
 C       6.77633293      -2.83998381      -3.67202336
 H       7.36460146      -3.32436966      -4.43055700
 C       7.19824592      -1.53566691      -3.19318705
 O       8.15001626      -0.92543186      -3.69996719
 C      -0.23053411      -3.43436150       1.25492799
 H      -0.26965048      -4.52543264       1.10200605
 H      -1.19904620      -3.02636121       0.97606218
 C       1.26448867      -0.93935084       1.71005268
 H       1.30699123      -1.56299006       2.57792572
 H       0.28337396      -0.53167477       1.50905062
 H       1.98083521      -0.19303591       1.85709093
 H      -0.02612067      -3.16766017       2.32105428
27
step 61
 C       1.62090388      -1.89614793       0.57382598
 N       2.68402913      -1.93747347      -0.13751715
 N       0.85732035      -2.96763786       0.36379666
 C       1.49863987      -3.83897142      -0.48835439
 O       1.05016161      -4.91125772      -0.86987958
 C       2.72599582      -3.14709546      -0.80946743
 C       3.69725710      -3.56969893      -1.68436618
 H       3.49085900      -4.52981969      -2.15524786
 C       4.76134979      -2.84748896      -2.28678388
 C       5.19838580      -1.60409822      -1.76444564
 H       4.49976844      -1.16134362      -1.02478919
 C       5.61415297      -3.47022028      -3.26268745
 H       5.29717446      -4.36235371      -3.75104153
 C       6.36432561      -1.02829568      -2.14204521
 H       6.61312749      -0.02438307      -1.72313946
 C       6.77510469      -2.84186029      -3.67339532
 H       7.36781183      -3.31890026      -4.43554317
 C       7.19652039      -1.53497172      -3.19215041
 O       8.14808185      -0.92424025      -3.70015064
 C      -0.23039646      -3.43207744       1.25636985
 H      -0.25512309      -4.52281630       1.10189563
 H      -1.20315214      -3.03755262       0.97988410
 C       1.26582756      -0.94022436       1.71088104
 H       1.30322298      -1.56069487       2.57892878
 H       0.28651789      -0.53631817       1.51019598
 H       1.98215606      -0.19128792       1.85465864
 H      -0.02227023      -3.17066921       2.32343752
27
step 62
 C       1.62086993      -1.89740590       0.57199315
 N       2.68583284      -1.93764457      -0.13711273
 N       0.85498469      -2.97004975       0.36319192
 C       1.49565147      -3.83526319      -0.48691663
 O       1.05092206      -4.91058857      -0.86919495
 C       2.72595262      -3.14696091      -0.80979119
 C       3.69790446      -3.56923745      -1.68519447
 H       3.49428854      -4.52950422      -2.15481361
 C       4.76298142      -2.84640140      -2.28590442
 C       5.19952594      -1.60555589      -1.76423503
 H       4.50573603      -1.16504215      -1.02999191
 C       5.61586325      -3.47163817      -3.26351711
 H       5.29204560      -4.36885556      -3.74442747
 C       6.36438267      -1.02722256      -2.14279375
 H       6.60896592      -0.02852849      -1.72585410
 C       6.77367713      -2.84383255      -3.67471864
 H       7.37160238      -3.31349860      -4.44113932
 C       7.19477995      -1.53440491      -3.19119538
 O       8.14617862      -0.92303302      -3.70030787
 C      -0.23011487      -3.42986175       1.25778904
 H      -0.24075627      -4.51964608       1.10246381
 H      -1.20742863      -3.04805323       0.98333946
 C       1.26713635      -0.94138605       1.71139268
 H       1.29849467      -1.55899368       2.58205421
 H       0.28883869      -0.54044964       1.51200344
 H       1.98595743      -0.18660360       1.85182626
 H      -0.01859530      -3.17444591       2.32382406
27
step 63
 C       1.62094153      -1.89830816       0.57038950
 N       2.68785558      -1.93767581      -0.13668314
 N       0.85220211      -2.97266344       0.36280730
 C       1.49283102      -3.83167649      -0.48561879
 O       1.05164020      -4.90998157      -0.86849841
 C       2.72583753      -3.14679903      -0.81015579
 C       3.69853110      -3.56871354      -1.68628646
 H       3.49775217      -4.52968847      -2.15392468
 C       4.76469126      -2.84550702      -2.28494541
 C       5.20052862      -1.60702153      -1.76393149
 H       4.51327035      -1.16849230      -1.03576562
 C       5.61766856      -3.47275940      -3.26428565
 H       5.28669313      -4.37693614      -3.73805337
 C       6.36440879      -1.02583559      -2.14343616
 H       6.60483756      -0.03411220      -1.72915557
 C       6.77208025      -2.84588559      -3.67600690
 H       7.37581353      -3.30813053      -4.44717381
 C       7.19303280      -1.53397244      -3.19033688
 O       8.14430245      -0.92181498      -3.70043768
 C      -0.22968069      -3.42773967       1.25918259
 H      -0.22668942      -4.51607124       1.10373758
 H      -1.21189343      -3.05778084       0.98641063
 C       1.26844985      -0.94281469       1.71159124
 H       1.29292007      -1.55787189       2.58724912
 H       0.29017000      -0.54394827       1.51440054
 H       1.99186556      -0.17940881       1.84856098
 H      -0.01511546      -3.17886489       2.32229687
27
step 64
 C       1.62111408      -1.89885726       0.56902418
 N       2.69008359      -1.93757396      -0.13622560
 N       0.84899306      -2.97542613       0.36264803
 C       1.49018873      -3.82825500      -0.48448669
 O       1.05231839      -4.90942802      -0.86778745
 C       2.72565286      -3.14660687      -0.81056362
 C       3.69913312      -3.56812303      -1.68763145
 H       3.50121888      -4.53040873      -2.15261734
 C       4.76647889      -2.84482448      -2.28391783
 C       5.20142765      -1.60850118      -1.76356427
 H       4.52194377      -1.17143952      -1.04166182
 C       5.61953494      -3.47361890      -3.26499337
 H       5.28129750      -4.38623025      -3.73179887
 C       6.36438937      -1.02417811      -2.14398458
 H       6.60088851      -0.04063095      -1.73284281
 C       6.77034956      -2.84800439      -3.67727807
 H       7.38025214      -3.30274627      -4.45343603
 C       7.19128672      -1.53367822      -3.18958846
 O       8.14244878      -0.92059157      -3.70053881
 C      -0.22909402      -3.42573458       1.26053922
 H      -0.21306508      -4.51227520       1.10572736
 H      -1.21651329      -3.06668582       0.98909699
 C       1.26981204      -0.94447494       1.71149610
 H       1.28662928      -1.55720391       2.59430370
 H       0.29042952      -0.54672508       1.51731998
 H       1.99929941      -0.17035552       1.84481052
 H      -0.01182632      -3.18376461       2.31906738
27
step 65
 C       1.62138148      -1.89906230       0.56790297
 N       2.69250057      -1.93734670      -0.13573662
 N       0.84538519      -2.97828170       0.36271604
 C       1.48773252      -3.82504035      -0.48354373
 O       1.05295923      -4.90891964      -0.86705999
 C       2.72540219      -3.14638068      -0.81101729
 C       3.69970509      -3.56746378      -1.68921744
 H       3.50466231      -4.53168172      -2.15092561
 C       4.76834342      -2.84437033      -2.28283223
 C       5.20226361      -1.61000248      -1.76316781
 H       4.53126098      -1.17360281      -1.04717254
 C       5.62142416      -3.47426166      -3.26564368
 H       5.27607243      -4.39628105      -3.72550643
 C       6.36430803      -1.02230470      -2.14445642
 H       6.59728414      -0.04747528      -1.73666903
 C       6.76852445      -2.85017315      -3.67855290
 H       7.38470638      -3.29729179      -4.45969500
 C       7.18954903      -1.53352412      -3.18896217
 O       8.14061264      -0.91936876      -3.70060995
 C      -0.22836371      -3.42386834       1.26183981
 H      -0.20002613      -4.50846561       1.10842822
 H      -1.22120526      -3.07474885       0.99141430
 C       1.27126755      -0.94632296       1.71113896
 H       1.27976722      -1.55677354       2.60287215
 H       0.28963094      -0.54873021       1.52070301
 H       2.00756168      -0.16022721       1.84052026
 H      -0.00869998      -3.18895220       2.31446803
27
step 66
 C       1.62173641      -1.89893840       0.56702832
 N       2.69508777      -1.93700272      -0.13521200
 N       0.84141289      -2.98117199       0.36300963
 C       1.48546793      -3.82207110      -0.48281026
 O       1.05356549      -4.90844869      -0.86631439
 C       2.72509037      -3.14611610      -0.81151975
 C       3.70023988      -3.56673605      -1.69103129
 H       3.50806160      -4.53350004      -2.14887885
 C       4.77028346      -2.84415885      -2.28169847
 C       5.20308031      -1.61153321      -1.76277859
 H       4.54069647      -1.17469643      -1.05176856
 C       5.62329553      -3.47473858      -3.26624096
 H       5.27124688      -4.40658795      -3.71900761
 C       6.36414773      -1.02027802      -2.14487323
 H       6.59420028      -0.05396517      -1.74035644
 C       6.76664651      -2.85237470      -3.67985310
 H       7.38896235      -3.29172006      -4.46571984
 C       7.18782630      -1.53351004      -3.18846844
 O       8.13878905      -0.91815281      -3.70064992
 C      -0.22750667      -3.42216184       1.26305866
 H      -0.18771321      -4.50486156       1.11182190
 H      -1.22584327      -3.08197671       0.99339277
 C       1.27285415      -0.94831151       1.71055965
 H       1.27249179      -1.55630478       2.61250788
 H       0.28788642      -0.54995653       1.52450025
 H       2.01592897      -0.14984382       1.83564768
 H      -0.00568720      -3.19421022       2.30893710
27
step 67
 C       1.62217075      -1.89850595       0.56639955
 N       2.69782425      -1.93655145      -0.13464693
 N       0.83711666      -2.98403825       0.36352313
 C       1.48339832      -3.81938144      -0.48230304
 O       1.05413986      -4.90800856      -0.86554967
 C       2.72472319      -3.14580823      -0.81207408
 C       3.70072908      -3.56594255      -1.69305907
 H       3.51140105      -4.53583211      -2.14650149
 C       4.77229707      -2.84420181      -2.28052566
 C       5.20392065      -1.61309899      -1.76243096
 H       4.54974399      -1.17445958      -1.05495037
 C       5.62510795      -3.47510238      -3.26678886
 H       5.26704690      -4.41665228      -3.71214610
 C       6.36389201      -1.01816417      -2.14525885
 H       6.59181004      -0.05940530      -1.74361916
 C       6.76475773      -2.85458997      -3.68119966
 H       7.39281840      -3.28599968      -4.47129709
 C       7.18612452      -1.53363394      -3.18811608
 O       8.13697292      -0.91695028      -3.70065762
 C      -0.22654654      -3.42063558       1.26416542
 H      -0.17626203      -4.50168044       1.11587913
 H      -1.23027071      -3.08839632       0.99507384
 C       1.27459754      -0.95039369       1.70980199
 H       1.26497145      -1.55549698       2.62270690
 H       0.28539751      -0.55043855       1.52866983
 H       2.02372454      -0.13998357       1.83017158
 H      -0.00272140      -3.19930532       2.30299525
27
step 68
 C       1.62267586      -1.89778983       0.56601295
 N       2.70068714      -1.93600306      -0.13403613
 N       0.83254243      -2.98682250       0.36424660
 C       1.48152489      -3.81700030      -0.48203468
 O       1.05468480      -4.90759398      -0.86476553
 C       2.72430725      -3.14545177      -0.81268343
 C       3.70116308      -3.56508849      -1.69528614
 H       3.51466987      -4.53862223      -2.14381287
 C       4.77438176      -2.84450834      -2.27932190
 C       5.20482155      -1.61470069      -1.76215223
 H       4.55797262      -1.17269178      -1.05630713
 C       5.62682177      -3.47540399      -3.26728902
 H       5.26367975      -4.42601609      -3.70479510
 C       6.36352659      -1.01602664      -2.14563695
 H       6.59026778      -0.06315471      -1.74619236
 C       6.76289878      -2.85679781      -3.68261130
 H       7.39609842      -3.28012166      -4.47624653
 C       7.18444895      -1.53389193      -3.18791227
 O       8.13515929      -0.91576784      -3.70063213
 C      -0.22551186      -3.41931015       1.26512803
 H      -0.16580107      -4.49912326       1.12056252
 H      -1.23431541      -3.09404837       0.99650652
 C       1.27650913      -0.95252509       1.70891025
 H       1.25738196      -1.55405782       2.63295111
 H       0.28243700      -0.55024731       1.53317356
 H       2.03036725      -0.13132915       1.82409589
 H       0.00027456      -3.20399927       2.29720999
27
step 69
 C       1.62324300      -1.89681875       0.56586201
 N       2.70365187      -1.93536833      -0.13337390
 N       0.82774086      -2.98946886       0.36516577
 C       1.47984687      -3.81495055      -0.48201329
 O       1.05520251      -4.90720124      -0.86396241
 C       2.72384977      -3.14504119      -0.81335098
 C       3.70153135      -3.56418131      -1.69769725
 H       3.51786141      -4.54179299      -2.14082821
 C       4.77653445      -2.84508480      -2.27809422
 C       5.20580939      -1.61633176      -1.76195801
 H       4.56507945      -1.16928817      -1.05557377
 C       5.62840047      -3.47568983      -3.26774037
 H       5.26132139      -4.43429155      -3.69686866
 C       6.36304100      -1.01391966      -2.14602832
 H       6.58969109      -0.06470501      -1.74786509
 C       6.76110745      -2.85897499      -3.68410327
 H       7.39866243      -3.27410371      -4.48043340
 C       7.18280409      -1.53427842      -3.18786255
 O       8.13334349      -0.91461214      -3.70057278
 C      -0.22443380      -3.41820652       1.26591651
 H      -0.15644935      -4.49736070       1.12582960
 H      -1.23780596      -3.09898094       0.99774360
 C       1.27858604      -0.95466495       1.70792643
 H       1.24990267      -1.55173039       2.64274666
 H       0.27932373      -0.54948196       1.53797207
 H       2.03539938      -0.12443571       1.81744945
 H       0.00337874      -3.20806201       2.29214866
27
step 70
 C       1.62386359      -1.89562445       0.56593757
 N       2.70669251      -1.93465850      -0.13265427
 N       0.82276644      -2.99192472       0.36626201
 C       1.47836160      -3.81324840      -0.48224226
 O       1.05569472      -4.90682840      -0.86314156
 C       2.72335837      -3.14457087      -0.81407987
 C       3.70182265      -3.56323040      -1.70027658
 H       3.52097204      -4.54524951      -2.13756026
 C       4.77875151      -2.84593463      -2.27684839
 C       5.20689675      -1.61797624      -1.76184873
 H       4.57092616      -1.16426658      -1.05267255
 C       5.62981203      -3.47599960      -3.26813879
 H       5.26010748      -4.44118156      -3.68832776
 C       6.36243006      -1.01188191      -2.14644818
 H       6.59014432      -0.06375225      -1.74851061
 C       6.75941730      -2.86109647      -3.68568626
 H       7.40041437      -3.26799210      -4.48377708
 C       7.18119370      -1.53478627      -3.18797092
 O       8.13152123      -0.91348971      -3.70047916
 C      -0.22334375      -3.41734603       1.26650748
 H      -0.14831443      -4.49652083       1.13163565
 H      -1.24058751      -3.10324377       0.99883797
 C       1.28081276      -0.95677679       1.70688833
 H       1.24271235      -1.54831265       2.65165455
 H       0.27639433      -0.54825957       1.54301987
 H       2.03849944      -0.11971456       1.81028362
 H       0.00665822      -3.21128573       2.28832273
27
step 71
 C       1.62452954      -1.89424114       0.56622805
 N       2.70978210      -1.93388515      -0.13187112
 N       0.81767669      -2.99414174       0.36751249
 C       1.47706480      -3.81190299      -0.48272017
 O       1.05616271      -4.90647541      -0.86230501
 C       2.72284091      -3.14403522      -0.81487311
 C       3.70202534      -3.56224664      -1.70300774
 H       3.52399985      -4.54888495      -2.13402152
 C       4.78102879      -2.84705829      -2.27558891
 C       5.20808139      -1.61960817      -1.76180851
 H       4.57554899      -1.15777836      -1.04772754
 C       5.63103011      -3.47636484      -3.26847725
 H       5.26012750      -4.44649305      -3.67918233
 C       6.36169484      -1.00993237      -2.14690440
 H       6.59162731      -0.06024452      -1.74810670
 C       6.75785649      -2.86313579      -3.68736578
 H       7.40130721      -3.26186165      -4.48625634
 C       7.17962068      -1.53540701      -3.18823983
 O       8.12968880      -0.91240677      -3.70035125
 C      -0.22227088      -3.41675010       1.26688876
 H      -0.14149055      -4.49667966       1.13793614
 H      -1.24253539      -3.10688345       0.99983961
 C       1.28316347      -0.95882885       1.70582835
 H       1.23598503      -1.54366973       2.65931300
 H       0.27397542      -0.54670457       1.54826134
 H       2.03948621      -0.11742636       1.80266884
 H       0.01015621      -3.21349867       2.28613012
27
step 72
 C       1.62523340      -1.89270481       0.56671969
 N       2.71289299      -1.93306003      -0.13101835
 N       0.81253120      -2.99607669       0.36889057
 C       1.47595082      -3.81091631      -0.48344088
 O       1.05660716      -4.90614412      -0.86145557
 C       2.72230523      -3.14342884      -0.81573354
 C       3.70212767      -3.56124177      -1.70587368
 H       3.52694331      -4.55258690      -2.13022662
 C       4.78336175      -2.84845315      -2.27431890
 C       5.20934772      -1.62119257      -1.76180670
 H       4.57913959      -1.15009921      -1.04104732
 C       5.63203497      -3.47680782      -3.26874606
 H       5.26142136      -4.45014487      -3.66949061
 C       6.36084282      -1.00806929      -2.14739699
 H       6.59407264      -0.05439176      -1.74674011
 C       6.75644685      -2.86506560      -3.68914167
 H       7.40134523      -3.25581392      -4.48791123
 C       7.17808710      -1.53613104      -3.18867025
 O       8.12784315      -0.91136914      -3.70018940
 C      -0.22124009      -3.41643973       1.26706318
 H      -0.13605672      -4.49785585       1.14468825
 H      -1.24356597      -3.10993978       1.00079305
 C       1.28560440      -0.96079469       1.70477272
 H       1.22988592      -1.53774012       2.66545271
 H       0.27235876      -0.54493890       1.55362801
 H       2.03831875      -0.11767847       1.79469097
 H       0.01388076      -3.21457637       2.28580601
27
step 73
 C       1.62596852      -1.89105276       0.56739684
 N       2.71599728      -1.93219490      -0.13008996
 N       0.80739065      -2.99769201       0.37036624
 C       1.47501293      -3.81028322      -0.48439376
 O       1.05702819      -4.90583835      -0.86059678
 C       2.72175905      -3.14274664      -0.81666375
 C       3.70211808      -3.56022790      -1.70885676
 H       3.52979986      -4.55624423      -2.12619466
 C       4.78574556      -2.85011345      -2.27304011
 C       5.21067022      -1.62268807      -1.76180155
 H       4.58200283      -1.14160210      -1.03308115
 C       5.63281420      -3.47734088      -3.26893329
 H       5.26397799      -4.45217145      -3.65935662
 C       6.35988732      -1.00627255      -2.14791899
 H       6.59735232      -0.04663469      -1.74459389
 C       6.75520328      -2.86685834      -3.69100799
 H       7.40058355      -3.24997401      -4.48884154
 C       7.17659410      -1.53694785      -3.18926175
 O       8.12598202      -0.91038212      -3.69999437
 C      -0.22027053      -3.41643491       1.26705089
 H      -0.13207493      -4.50000985       1.15185156
 H      -1.24364404      -3.11244331       1.00173554
 C       1.28809595      -0.96265386       1.70374103
 H       1.22456764      -1.53053752       2.66990638
 H       0.27178119      -0.54307367       1.55903746
 H       2.03509508      -0.12042378       1.78644782
 H       0.01779746      -3.21444883       2.28739281
27
step 74
 C       1.62672917      -1.88932306       0.56824221
 N       2.71906715      -1.93130141      -0.12908026
 N       0.80231585      -2.99895626       0.37190679
 C       1.47424366      -3.80999174      -0.48556412
 O       1.05742529      -4.90556376      -0.85973285
 C       2.72120972      -3.14198397      -0.81766605
 C       3.70198545      -3.55921688      -1.71193868
 H       3.53256470      -4.55975355      -2.12195133
 C       4.78817522      -2.85203023      -2.27175290
 C       5.21201776      -1.62405025      -1.76174521
 H       4.58450377      -1.13271933      -1.02436044
 C       5.63336314      -3.47796611      -3.26902528
 H       5.26773581      -4.45272293      -3.64892620
 C       6.35884612      -1.00450874      -2.14845849
 H       6.60129213      -0.03758181      -1.74192124
 C       6.75413350      -2.86848693      -3.69295324
 H       7.39912455      -3.24448583      -4.48920171
 C       7.17514182      -1.53784625      -3.19001253
 O       8.12410398      -0.90945041      -3.69976739
 C      -0.21937489      -3.41675394       1.26688924
 H      -0.12958840      -4.50304789       1.15938766
 H      -1.24278662      -3.11441400       1.00269577
 C       1.29059432      -0.96439278       1.70274602
 H       1.22016671      -1.52214941       2.67261412
 H       0.27240972      -0.54120255       1.56439363
 H       2.03005055      -0.12545994       1.77804561
 H       0.02182829      -3.21310224       2.29073667
27
step 75
 C       1.62751049      -1.88755411       0.56923717
 N       2.72207530      -1.93039091      -0.12798398
 N       0.79736669      -2.99984435       0.37347754
 C       1.47363515      -3.81002357      -0.48693372
 O       1.05779735      -4.90532776      -0.85886858
 C       2.72066410      -3.14113673      -0.81874241
 C       3.70171938      -3.55821976      -1.71510058
 H       3.53522984      -4.56302516      -2.11753035
 C       4.79064572      -2.85419135      -2.27045626
 C       5.21335787      -1.62523533      -1.76158879
 H       4.58701602      -1.12390230      -1.01543913
 C       5.63368503      -3.47867533      -3.26900722
 H       5.27258516      -4.45206103      -3.63838160
 C       6.35773982      -1.00273746      -2.14900115
 H       6.60569016      -0.02793154      -1.73901303
 C       6.75323817      -2.86992552      -3.69496095
 H       7.39711101      -3.23950596      -4.48919174
 C       7.17372938      -1.53881463      -3.19091950
 O       8.12220854      -0.90857800      -3.69951012
 C      -0.21855950      -3.41741289       1.26663057
 H      -0.12861987      -4.50683005       1.16725899
 H      -1.24106307      -3.11586103       1.00369328
 C       1.29305281      -0.96600550       1.70179342
 H       1.21680054      -1.51273347       2.67362544
 H       0.27433190      -0.53939694       1.56958847
 H       2.02355490      -0.13242995       1.76959533
 H       0.02585700      -3.21057552       2.29551125
27
step 76
 C       1.62830856      -1.88578422       0.57036214
 N       2.72499531      -1.92947434      -0.12679645
 N       0.79260114      -3.00033770       0.37504266
 C       1.47317949      -3.81035462      -0.48848136
 O       1.05814266      -4.90513933      -0.85800925
 C       2.72012842      -3.14020146      -0.81989441
 C       3.70131046      -3.55724632      -1.71832307
 H       3.53778333      -4.56598779      -2.11297450
 C       4.79315210      -2.85658149      -2.26914782
 C       5.21466021      -1.62620334      -1.76128670
 H       4.58987988      -1.11558573      -1.00684258
 C       5.63379085      -3.47945076      -3.26886377
 H       5.27837327      -4.45054939      -3.62793429
 C       6.35659011      -1.00091747      -2.14953272
 H       6.61033561      -0.01839612      -1.73616608
 C       6.75251153      -2.87115033      -3.69701064
 H       7.39471562      -3.23519611      -4.48904385
 C       7.17235483      -1.53984114      -3.19197832
 O       8.12029618      -0.90776815      -3.69922470
 C      -0.21782511      -3.41842494       1.26633803
 H      -0.12917022      -4.51118161       1.17542714
 H      -1.23859158      -3.11678370       1.00473834
 C       1.29542293      -0.96749423       1.70088205
 H       1.21456479      -1.50251173       2.67309810
 H       0.27755100      -0.53770280       1.57450462
 H       2.01610544      -0.14082722       1.76120866
 H       0.02973991      -3.20695254       2.30126256
27
step 77
 C       1.62912029      -1.88405115       0.57159691
 N       2.72780202      -1.92856211      -0.12551367
 N       0.78807424      -3.00042414       0.37656605
 C       1.47286904      -3.81095584      -0.49018357
 O       1.05845903      -4.90500874      -0.85716050
 C       2.71960811      -3.13917542      -0.82112320
 C       3.70075044      -3.55630473      -1.72158642
 H       3.54020883      -4.56859216      -2.10833584
 C       4.79568949      -2.85918225      -2.26782386
 C       5.21589900      -1.62692066      -1.76079996
 H       4.59337316      -1.10815984      -0.99902940
 C       5.63369864      -3.48026625      -3.26857989
 H       5.28491232      -4.44863602      -3.61781545
 C       6.35541822      -0.99901184      -2.15004096
 H       6.61502511      -0.00963873      -1.73365688
 C       6.75194240      -2.87214045      -3.69907931
 H       7.39212690      -3.23171414      -4.48900496
 C       7.17101512      -1.54091386      -3.19318351
 O       8.11836835      -0.90702328      -3.69891375
 C      -0.21716824      -3.41979984       1.26608057
 H      -0.13121751      -4.51590649       1.18385107
 H      -1.23553200      -3.11717325       1.00583260
 C       1.29765581      -0.96886911       1.70000411
 H       1.21353157      -1.49176249       2.67129311
 H       0.28198569      -0.53613898       1.57901900
 H       2.00831220      -0.15001020       1.75299331
 H       0.03331953      -3.20235207       2.30746437
27
step 78
 C       1.62994341      -1.88239166       0.57292101
 N       2.73047190      -1.92766404      -0.12413253
 N       0.78383719      -3.00009788       0.37801222
 C       1.47269663      -3.81179402      -0.49201531
 O       1.05874380      -4.90494729      -0.85632823
 C       2.71910775      -3.13805666      -0.82242947
 C       3.70003250      -3.55540127      -1.72487072
 H       3.54248548      -4.57081284      -2.10367528
 C       4.79825314      -2.86197233      -2.26647935
 C       5.21705455      -1.62736171      -1.76009831
 H       4.59769373      -1.10195092      -0.99236613
 C       5.63343245      -3.48108948      -3.26814178
 H       5.29199135      -4.44682555      -3.60826357
 C       6.35424373      -0.99699155      -2.15051714
 H       6.61957538      -0.00222815      -1.73172262
 C       6.75151571      -2.87287875      -3.70114313
 H       7.38953218      -3.22920418      -4.48931559
 C       7.16970618      -1.54202098      -3.19452848
 O       8.11642751      -0.90634501      -3.69858032
 C      -0.21658268      -3.42154322       1.26592779
 H      -0.13471654      -4.52080137       1.19248549
 H      -1.23207530      -3.11701571       1.00697024
 C       1.29970425      -0.97014689       1.69914602
 H       1.21374859      -1.48080914       2.66856446
 H       0.28747411      -0.53469702       1.58300701
 H       2.00086919      -0.15923325       1.74504766
 H       0.03643860      -3.19691674       2.31357362
27
step 79
 C       1.63077636      -1.88084113       0.57431413
 N       2.73298338      -1.92678924      -0.12265091
 N       0.77993644      -2.99935934       0.37934714
 C       1.47265581      -3.81283271      -0.49395066
 O       1.05899396      -4.90496697      -0.85551839
 C       2.71863094      -3.13684407      -0.82381341
 C       3.69915133      -3.55454018      -1.72815613
 H       3.54458807      -4.57264857      -2.09906156
 C       4.80083831      -2.86492777      -2.26510799
 C       5.21811400      -1.62751006      -1.75916156
 H       4.60295098      -1.09720884      -0.98711200
 C       5.63302078      -3.48188522      -3.26753798
 H       5.29939200      -4.44564003      -3.59950926
 C       6.35308364      -0.99483778      -2.15095682
 H       6.62383220       0.00339041      -1.73054905
 C       6.75121417      -2.87335267      -3.70317951
 H       7.38709900      -3.22778621      -4.49018681
 C       7.16842293      -1.54315091      -3.19600573
 O       8.11447708      -0.90573409      -3.69822789
 C      -0.21606112      -3.42365590       1.26594538
 H      -0.13959917      -4.52566944       1.20127976
 H      -1.22842989      -3.11629558       1.00813988
 C       1.30152590      -0.97134787       1.69828957
 H       1.21523964      -1.47000527       2.66534167
 H       0.29378244      -0.53334232       1.58634739
 H       1.99450673      -0.16770016       1.73745533
 H       0.03895237      -3.19080279       2.31907815
27
step 80
 C       1.63161826      -1.87943300       0.57575652
 N       2.73531711      -1.92594614      -0.12106777
 N       0.77641293      -2.99821487       0.38053904
 C       1.47274087      -3.81403318      -0.49596350
 O       1.05920629      -4.90508003      -0.85473686
 C       2.71818025      -3.13553740      -0.82527466
 C       3.69810336      -3.55372370      -1.73142310
 H       3.54648744      -4.57412089      -2.09456961
 C       4.80344022      -2.86802233      -2.26370234
 C       5.21907170      -1.62735896      -1.75798027
 H       4.60916302      -1.09409962      -0.98341067
 C       5.63249469      -3.48261936      -3.26676068
 H       5.30690704      -4.44556914      -3.59175779
 C       6.35195175      -0.99254319      -2.15136028
 H       6.62767644       0.00691177      -1.73026361
 C       6.75102010      -2.87355500      -3.70516909
 H       7.38495702      -3.22754631      -4.49177782
 C       7.16715944      -1.54429234      -3.19760687
 O       8.11252144      -0.90519043      -3.69786038
 C      -0.21559672      -3.42613324       1.26619150
 H      -0.14577537      -4.53033290       1.21017740
 H      -1.22480587      -3.11500022       1.00932688
 C       1.30308757      -0.97249108       1.69741397
 H       1.21800678      -1.45971521       2.66210321
 H       0.30061809      -0.53201711       1.58892739
 H       1.98992321      -0.17464238       1.73028044
 H       0.04073820      -3.18417088       2.32353296
27
step 81
 C       1.63246879      -1.87819833       0.57722943
 N       2.73745626      -1.92514243      -0.11938327
 N       0.77330148      -2.99667654       0.38155908
 C       1.47294690      -3.81535540      -0.49802814
 O       1.05937748      -4.90529859      -0.85398931
 C       2.71775721      -3.13413724      -0.82681232
 C       3.69688683      -3.55295219      -1.73465271
 H       3.54815119      -4.57527113      -2.09027845
 C       4.80605386      -2.87122791      -2.26225386
 C       5.21992919      -1.62691161      -1.75655606
 H       4.61625725      -1.09270129      -0.98128631
 C       5.63188577      -3.48326362      -3.26580700
 H       5.31435957      -4.44701478      -3.58517131
 C       6.35085823      -0.99011243      -2.15173263
 H       6.63102807       0.00817900      -1.73093200
 C       6.75091702      -2.87348441      -3.70709746
 H       7.38318327      -3.22852866      -4.49417735
 C       7.16590903      -1.54543435      -3.19932282
 O       8.11056584      -0.90471313      -3.69748206
 C      -0.21518449      -3.42896444       1.26671398
 H      -0.15313501      -4.53464341       1.21911626
 H      -1.22139808      -3.11312469       1.01051595
 C       1.30437033      -0.97358815       1.69649835
 H       1.22203388      -1.45029040       2.65933972
 H       0.30764777      -0.53064518       1.59064828
 H       1.98770172      -0.17941548       1.72356495
 H       0.04170214      -3.17717855       2.32658508
27
step 82
 C       1.63332812      -1.87716532       0.57871550
 N       2.73938670      -1.92438512      -0.11759889
 N       0.77063021      -2.99476183       0.38238199
 C       1.47326971      -3.81675901      -0.50011986
 O       1.05950432      -4.90563417      -0.85328099
 C       2.71736223      -3.13264506      -0.82842488
 C       3.69550185      -3.55222435      -1.73782694
 H       3.54954455      -4.57615596      -2.08626874
 C       4.80867387      -2.87451505      -2.26075311
 C       5.22069516      -1.62618107      -1.75490156
 H       4.62407315      -1.09300210      -0.98064260
 C       5.63122435      -3.48379985      -3.26467997
 H       5.32161941      -4.45023856      -3.57985347
 C       6.34980928      -0.98756224      -2.15208375
 H       6.63384889       0.00718636      -1.73255696
 C       6.75089079      -2.87314578      -3.70895632
 H       7.38179317      -3.23073049      -4.49739205
 C       7.16466446      -1.54656641      -3.20114391
 O       8.10861635      -0.90430049      -3.69709752
 C      -0.21482241      -3.43213207       1.26754853
 H      -0.16155034      -4.53849040       1.22802924
 H      -1.21836993      -3.11067671       1.01169376
 C       1.30537405      -0.97463732       1.69552483
 H       1.22729118      -1.44204270       2.65750824
 H       0.31452010      -0.52913884       1.59143081
 H       1.98822737      -0.18159509       1.71732898
 H       0.04178314      -3.16997383       2.32798861
27
step 83
 C       1.63419681      -1.87635887       0.58019919
 N       2.74109718      -1.92368050      -0.11571745
 N       0.76842027      -2.99249329       0.38298648
 C       1.47370564      -3.81820435      -0.50221544
 O       1.05958381      -4.90609723      -0.85261659
 C       2.71699467      -3.13106315      -0.83011026
 C       3.69395051      -3.55153759      -1.74092898
 H       3.55063140      -4.57684176      -2.08262018
 C       4.81129438      -2.87785347      -2.25918991
 C       5.22138513      -1.62518999      -1.75304026
 H       4.63236687      -1.09490096      -0.98126432
 C       5.63053813      -3.48422337      -3.26338919
 H       5.32861304      -4.45532316      -3.57583942
 C       6.34880695      -0.98492124      -2.15242814
 H       6.63614437       0.00407882      -1.73507851
 C       6.75093015      -2.87255020      -3.71074393
 H       7.38073915      -3.23410075      -4.50134405
 C       7.16341811      -1.54767843      -3.20306008
 O       8.10667974      -0.90395009      -3.69671163
 C      -0.21451223      -3.43561176       1.26871747
 H      -0.17087906      -4.54180663       1.23684552
 H      -1.21583969      -3.10768112       1.01285109
 C       1.30611988      -0.97561946       1.69448176
 H       1.23373977      -1.43521760       2.65698165
 H       0.32089179      -0.52740811       1.59122031
 H       1.99162685      -0.18104626       1.71157450
 H       0.04095508      -3.16269007       2.32761254
27
step 84
 C       1.63507565      -1.87580011       0.58166711
 N       2.74257944      -1.92303424      -0.11374316
 N       0.76668556      -2.98989821       0.38335558
 C       1.47425142      -3.81965332      -0.50429355
 O       1.05961341      -4.90669668      -0.85200009
 C       2.71665283      -3.12939463      -0.83186574
 C       3.69223683      -3.55088848      -1.74394353
 H       3.55137539      -4.57739809      -2.07940881
 C       4.81390890      -2.88121267      -2.25755356
 C       5.22202094      -1.62397006      -1.75100588
 H       4.64081868      -1.09821091      -0.98282303
 C       5.62985168      -3.48454421      -3.26195072
 H       5.33532463      -4.46215693      -3.57309368
 C       6.34784901      -0.98222941      -2.15278457
 H       6.63796451      -0.00085194      -1.73837558
 C       6.75102655      -2.87171459      -3.71246466
 H       7.37991709      -3.23854297      -4.50587821
 C       7.16216219      -1.54876073      -3.20506098
 O       8.10476340      -0.90365883      -3.69632950
 C      -0.21425992      -3.43937225       1.27022915
 H      -0.18096779      -4.54457122       1.24549220
 H      -1.21387112      -3.10418329       1.01398429
 C       1.30664919      -0.97649778       1.69336649
 H       1.24133440      -1.42997146       2.65800088
 H       0.32645563      -0.52537160       1.58999124
 H       1.99774978      -0.17794318       1.70629117
 H       0.03922747      -3.15544137       2.32544350
27
step 85
 C       1.63596548      -1.87550615       0.58310840
 N       2.74382825      -1.92245138      -0.11168164
 N       0.76543273      -2.98700825       0.38347684
 C       1.47490387      -3.82107033      -0.50633511
 O       1.05959116      -4.90743946      -0.85143461
 C       2.71633397      -3.12764335      -0.83368800
 C       3.69036678      -3.55027318      -1.74685705
 H       3.55174113      -4.57789090      -2.07670442
 C       4.81651023      -2.88456249      -2.25583309
 C       5.22262986      -1.62256095      -1.74884119
 H       4.64904500      -1.10266757      -0.98488921
 C       5.62918657      -3.48478621      -3.26038636
 H       5.34178826      -4.47044574      -3.57151630
 C       6.34692904      -0.97953706      -2.15317571
 H       6.63940325      -0.00717664      -1.74226981
 C       6.75117344      -2.87066104      -3.71412785
 H       7.37917941      -3.24392168      -4.51077780
 C       7.16088898      -1.54980405      -3.20713618
 O       8.10287521      -0.90342303      -3.69595635
 C      -0.21407560      -3.44337572       1.27207776
 H      -0.19165574      -4.54680980       1.25389600
 H      -1.21246978      -3.10025098       1.01509568
 C       1.30701896      -0.97722137       1.69218735
 H       1.25002367      -1.42635714       2.66063963
 H       0.33096737      -0.52296829       1.58775044
 H       2.00619773      -0.17273251       1.70146252
 H       0.03664501      -3.14831880       2.32158482
27
step 86
 C       1.63686700      -1.87548971       0.58451499
 N       2.74484145      -1.92193637      -0.10953988
 N       0.76466129      -2.98385903       0.38334232
 C       1.47565970      -3.82242310      -0.50832357
 O       1.05951588      -4.90833009      -0.85092231
 C       2.71603441      -3.12581390      -0.83557313
 C       3.68834823      -3.54968798      -1.74965796
 H       3.55169524      -4.57837588      -2.07456832
 C       4.81909043      -2.88787364      -2.25401755
 C       5.22324306      -1.62100872      -1.74659607
 H       4.65661736      -1.10794466      -0.98695437
 C       5.62856209      -3.48498404      -3.25872228
 H       5.34807326      -4.47974920      -3.57095586
 C       6.34603673      -0.97690321      -2.15362730
 H       6.64059531      -0.01434568      -1.74653283
 C       6.75136521      -2.86941587      -3.71574626
 H       7.37835241      -3.25007165      -4.51578579
 C       7.15959103      -1.55079955      -3.20927530
 O       8.10102340      -0.90323849      -3.69559751
 C      -0.21397298      -3.44757863       1.27424366
 H      -0.20277848      -4.54859174       1.26198522
 H      -1.21158535      -3.09597423       1.01619294
 C       1.30729464      -0.97773150       1.69096398
 H       1.25974726      -1.42432113       2.66478985
 H       0.33426813      -0.52016845       1.58453900
 H       2.01639039      -0.16605366       1.69707055
 H       0.03328607      -3.14138711       2.31625216
27
step 87
 C       1.63778059      -1.87575897       0.58588180
 N       2.74561985      -1.92149312      -0.10732617
 N       0.76436385      -2.98048967       0.38294856
 C       1.47651522      -3.82368334      -0.51024505
 O       1.05938726      -4.90937035      -0.85046428
 C       2.71574958      -3.12391158      -0.83751659
 C       3.68619088      -3.54912963      -1.75233684
 H       3.55120737      -4.57889270      -2.07305151
 C       4.82164084      -2.89111829      -2.25209632
 C       5.22389332      -1.61936343      -1.74432436
 H       4.66309055      -1.11367890      -0.98846661
 C       5.62799627      -3.48517897      -3.25698735
 H       5.35426675      -4.48953237      -3.57122658
 C       6.34515852      -0.97439288      -2.15416708
 H       6.64170903      -0.02171868      -1.75089863
 C       6.75159591      -2.86800858      -3.71733414
 H       7.37725510      -3.25680865      -4.52062864
 C       7.15826135      -1.55173876      -3.21146817
 O       8.09921638      -0.90310058      -3.69525830
 C      -0.21396846      -3.45193292       1.27669421
 H      -0.21417149      -4.55002448       1.26969153
 H      -1.21111969      -3.09146310       1.01728746
 C       1.30754261      -0.97796846       1.68972607
 H       1.27043109      -1.42371300       2.67017218
 H       0.33629894      -0.51698182       1.58043210
 H       2.02764800      -0.15864145       1.69309810
 H       0.02926013      -3.13468265       2.30976536
27
step 88
 C       1.63870611      -1.87631746       0.58720690
 N       2.74616716      -1.92112496      -0.10505006
 N       0.76452649      -2.97694236       0.38229637
 C       1.47746613      -3.82482737      -0.51208851
 O       1.05920606      -4.91055903      -0.85006047
 C       2.71547405      -3.12194228      -0.83951334
 C       3.68390615      -3.54859576      -1.75488649
 H       3.55025101      -4.57946055      -2.07219337
 C       4.82415216      -2.89427048      -2.25005941
 C       5.22461187      -1.61767597      -1.74207948
 H       4.66804079      -1.11950459      -0.98888104
 C       5.62750671      -3.48541426      -3.25521135
 H       5.36045690      -4.49922226      -3.57212619
 C       6.34427877      -0.97207307      -2.15482309
 H       6.64293381      -0.02860959      -1.75508256
 C       6.75185816      -2.86647064      -3.71890550
 H       7.37571706      -3.26394055      -4.52503937
 C       7.15689370      -1.55261357      -3.21370500
 O       8.09746267      -0.90300436      -3.69494402
 C      -0.21407984      -3.45638744       1.27938521
 H      -0.22567335      -4.55124490       1.27695172
 H      -1.21093925      -3.08684362       1.01839203
 C       1.30782387      -0.97787732       1.68851057
 H       1.28198204      -1.42430493       2.67636900
 H       0.33710491      -0.51346144       1.57553691
 H       2.03926953      -0.15123575       1.68952913
 H       0.02470368      -3.12821281       2.30253487
27
step 89
 C       1.63964276      -1.87716394       0.58849152
 N       2.74648987      -1.92083471      -0.10272219
 N       0.76512930      -2.97326177       0.38139059
 C       1.47850733      -3.82583652      -0.51384572
 O       1.05897415      -4.91189171      -0.84970972
 C       2.71520170      -3.11991253      -0.84155775
 C       3.68150711      -3.54808504      -1.75730200
 H       3.54880404      -4.58007566      -2.07202108
 C       4.82661459      -2.89730657      -2.24789784
 C       5.22542453      -1.61599426      -1.73990911
 H       4.67111167      -1.12509537      -0.98772221
 C       5.62711120      -3.48573086      -3.25342332
 H       5.36671942      -4.50825992      -3.57345221
 C       6.34338138      -0.97000747      -2.15562145
 H       6.64446133      -0.03434847      -1.75880745
 C       6.75214217      -2.86483446      -3.72047249
 H       7.37359376      -3.27127788      -4.52877788
 C       7.15548266      -1.55341624      -3.21597645
 O       8.09577070      -0.90294468      -3.69465979
 C      -0.21432477      -3.46088975       1.28226304
 H      -0.23712831      -4.55240800       1.28370923
 H      -1.21089000      -3.08225206       1.01951829
 C       1.30818993      -0.97741186       1.68735787
 H       1.29428417      -1.42581715       2.68287261
 H       0.33682841      -0.50970209       1.56998854
 H       2.05059414      -0.14451237       1.68634778
 H       0.01977442      -3.12195813       2.29504130
27
step 90
 C       1.64058903      -1.87829246       0.58974006
 N       2.74659706      -1.92062462      -0.10035421
 N       0.76614687      -2.96949455       0.38023973
 C       1.47963278      -3.82669741      -0.51551129
 O       1.05869452      -4.91336074      -0.84940973
 C       2.71492571      -3.11782935      -0.84364377
 C       3.67900829      -3.54759721      -1.75958066
 H       3.54684911      -4.58071080      -2.07254959
 C       4.82901803      -2.90020555      -2.24560387
 C       5.22634776      -1.61435955      -1.73784951
 H       4.67206136      -1.13020618      -0.98464956
 C       5.62682796      -3.48616406      -3.25165014
 H       5.37310844      -4.51614285      -3.57501512
 C       6.34245196      -0.96825011      -2.15658376
 H       6.64646171      -0.03835530      -1.76183475
 C       6.75243519      -2.86313223      -3.72204414
 H       7.37077825      -3.27864319      -4.53164737
 C       7.15402391      -1.55413934      -3.21827384
 O       8.09414871      -0.90291624      -3.69441061
 C      -0.21471922      -3.46538767       1.28526755
 H      -0.24838815      -4.55367349       1.28991542
 H      -1.21081302      -3.07782838       1.02067418
 C       1.30868099      -0.97653655       1.68630789
 H       1.30719757      -1.42794481       2.68913875
 H       0.33569223      -0.50583356       1.56394433
 H       2.06104271      -0.13903860       1.68353700
 H       0.01464331      -3.11587796       2.28780631
27
step 91
 C       1.64154265      -1.87969245       0.59095994
 N       2.74650021      -1.92049640      -0.09795862
 N       0.76754902      -2.96568867       0.37885564
 C       1.48083539      -3.82740203      -0.51708253
 O       1.05837138      -4.91495528      -0.84915711
 C       2.71463875      -3.11570029      -0.84576487
 C       3.67642559      -3.54713302      -1.76172189
 H       3.54437376      -4.58131702      -2.07378230
 C       4.83135230      -2.90294932      -2.24317139
 C       5.22738531      -1.61280345      -1.73592090
 H       4.67080116      -1.13470582      -0.97951179
 C       5.62667552      -3.48674095      -3.24991535
 H       5.37965135      -4.52245608      -3.57664826
 C       6.34148003      -0.96683910      -2.15772449
 H       6.64905762      -0.04021473      -1.76399634
 C       6.75272118      -2.86139501      -3.72362550
 H       7.36720938      -3.28587896      -4.53350633
 C       7.15251425      -1.55477577      -3.22058913
 O       8.09260457      -0.90291373      -3.69420119
 C      -0.21527584      -3.46983082       1.28833579
 H      -0.25931317      -4.55519128       1.29553056
 H      -1.21055932      -3.07370932       1.02186183
 C       1.30932581      -0.97522751       1.68539644
 H       1.32056017      -1.43038251       2.69463683
 H       0.33397577      -0.50200990       1.55757712
 H       2.07014230      -0.13524917       1.68107723
 H       0.00948467      -3.10992051       2.28135476
27
step 92
 C       1.64250065      -1.88134892       0.59216139
 N       2.74621301      -1.92045122      -0.09554862
 N       0.76930139      -2.96189291       0.37725311
 C       1.48210700      -3.82794768      -0.51855930
 O       1.05801003      -4.91666147      -0.84894750
 C       2.71433303      -3.11353327      -0.84791421
 C       3.67377608      -3.54669393      -1.76372704
 H       3.54137033      -4.58182729      -2.07571224
 C       4.83360739      -2.90552279      -2.24059616
 C       5.22852661      -1.61134662      -1.73412487
 H       4.66741506      -1.13859074      -0.97237541
 C       5.62667239      -3.48747885      -3.24823828
 H       5.38634688      -4.52689290      -3.57821479
 C       6.34046105      -0.96579165      -2.15904898
 H       6.65230218      -0.03973541      -1.76521966
 C       6.75298079      -2.85965185      -3.72521700
 H       7.36287646      -3.29285394      -4.53427647
 C       7.15095176      -1.55531874      -3.22291506
 O       8.09114571      -0.90293193      -3.69403598
 C      -0.21600255      -3.47417168       1.29140624
 H      -0.26977252      -4.55708694       1.30052447
 H      -1.21000239      -3.07002169       1.02307607
 C       1.31014269      -0.97347264       1.68465254
 H       1.33419204      -1.43284438       2.69889125
 H       0.33198777      -0.49839633       1.55106801
 H       2.07753885      -0.13343610       1.67894536
 H       0.00446487      -3.10403714       2.27616999
27
step 93
 C       1.64345949      -1.88324268       0.59335713
 N       2.74575112      -1.92048970      -0.09313793
 N       0.77136616      -2.95815616       0.37544947
 C       1.48343840      -3.82833671      -0.51994380
 O       1.05761684      -4.91846272      -0.84877568
 C       2.71400043      -3.11133660      -0.85008461
 C       3.67107786      -3.54628180      -1.76559922
 H       3.53783577      -4.58216171      -2.07832367
 C       4.83577381      -2.90791399      -2.23787600
 C       5.22974711      -1.60999934      -1.73244483
 H       4.66215418      -1.14197579      -0.96351857
 C       5.62683657      -3.48838440      -3.24663334
 H       5.39316527      -4.52926759      -3.57961240
 C       6.33939746      -0.96510184      -2.16055253
 H       6.65616621      -0.03697803      -1.76553976
 C       6.75319164      -2.85792908      -3.72681432
 H       7.35782096      -3.29946790      -4.53394674
 C       7.14933581      -1.55576178      -3.22524517
 O       8.08977900      -0.90296576      -3.69391911
 C      -0.21690137      -3.47836615       1.29442326
 H      -0.27964374      -4.55944904       1.30487685
 H      -1.20904821      -3.06687631       1.02430356
 C       1.31114068      -0.97127163       1.68409659
 H       1.34790124      -1.43507929       2.70151221
 H       0.33003903      -0.49515576       1.54459921
 H       2.08300322      -0.13374610       1.67711396
 H      -0.00026924      -3.09819958       2.27264695
27
step 94
 C       1.64441517      -1.88535076       0.59456199
 N       2.74513192      -1.92061188      -0.09074069
 N       0.77370273      -2.95452688       0.37346425
 C       1.48481939      -3.82857615      -0.52124030
 O       1.05719909      -4.92034008      -0.84863571
 C       2.71363263      -3.10911886      -0.85226869
 C       3.66834982      -3.54589840      -1.76734299
 H       3.53377126      -4.58223365      -2.08159397
 C       4.83784282      -2.91011404      -2.23501107
 C       5.23101073      -1.60876378      -1.73084915
 H       4.65540728      -1.14506519      -0.95339214
 C       5.62718501      -3.48945318      -3.24510955
 H       5.40004984      -4.52952209      -3.58077637
 C       6.33829867      -0.96474176      -2.16222095
 H       6.66053878      -0.03224380      -1.76509440
 C       6.75332872      -2.85624968      -3.72840831
 H       7.35213538      -3.30565465      -4.53257377
 C       7.14766710      -1.55609875      -3.22757376
 O       8.08851062      -0.90301045      -3.69385436
 C      -0.21796752      -3.48237384       1.29734095
 H      -0.28881217      -4.56231950       1.30857714
 H      -1.20764232      -3.06436291       1.02552260
 C       1.31232091      -0.96863584       1.68373940
 H       1.36149042      -1.43688145       2.70221633
 H       0.32841791      -0.49243645       1.53834738
 H       2.08643424      -0.13618137       1.67555061
 H      -0.00460030      -3.09241726       2.27105056
27
step 95
 C       1.64536345      -1.88764676       0.59579250
 N       2.74437426      -1.92081726      -0.08837121
 N       0.77626837      -2.95105249       0.37131877
 C       1.48623890      -3.82867717      -0.52245489
 O       1.05676485      -4.92227265      -0.84852110
 C       2.71322125      -3.10688880      -0.85445894
 C       3.66561146      -3.54554504      -1.76896412
 H       3.52918187      -4.58195636      -2.08549567
 C       4.83980673      -2.91211706      -2.23200388
 C       5.23227373      -1.60763716      -1.72929615
 H       4.64765548      -1.14811239      -0.94255915
 C       5.62773309      -3.49066964      -3.24367018
 H       5.40691928      -4.52772823      -3.58168147
 C       6.33717987      -0.96466572      -2.16403238
 H       6.66524068      -0.02602685      -1.76410370
 C       6.75336511      -2.85463290      -3.72998544
 H       7.34595951      -3.31138332      -4.53027880
 C       7.14594756      -1.55632389      -3.22989596
 O       8.08734599      -0.90306154      -3.69384514
 C      -0.21918910      -3.48615802       1.30012603
 H      -0.29717023      -4.56568848       1.31162412
 H      -1.20577391      -3.06254625       1.02670345
 C       1.31367737      -0.96558829       1.68358192
 H       1.37476353      -1.43809767       2.70083919
 H       0.32736998      -0.49036171       1.53247783
 H       2.08786097      -0.14060129       1.67421741
 H      -0.00844732      -3.08675081       2.27148739
27
step 96
 C       1.64630005      -1.89010139       0.59706633
 N       2.74349822      -1.92110479      -0.08604391
 N       0.77901888      -2.94777882       0.36903582
 C       1.48768509      -3.82865453      -0.52359514
 O       1.05632284      -4.92423811      -0.84842498
 C       2.71275796      -3.10465533      -0.85664777
 C       3.66288265      -3.54522207      -1.77046932
 H       3.52407617      -4.58124934      -2.08999848
 C       4.84165911      -2.91392004      -2.22885942
 C       5.23348904      -1.60661498      -1.72773976
 H       4.63942173      -1.15137930      -0.93162789
 C       5.62849419      -3.49200751      -3.24231261
 H       5.41367038      -4.52408586      -3.58234264
 C       6.33605997      -0.96481640      -2.16595985
 H       6.67004693      -0.01894411      -1.76284019
 C       6.75327276      -2.85309397      -3.73152835
 H       7.33947411      -3.31665735      -4.52724087
 C       7.14418032      -1.55643185      -3.23220760
 O       8.08628972      -0.90311500      -3.69389448
 C      -0.22054721      -3.48968573       1.30275891
 H      -0.30461711      -4.56949431       1.31402501
 H      -1.20347736      -3.06146353       1.02780907
 C       1.31519751      -0.96216351       1.68361534
 H       1.38753219      -1.43863191       2.69734181
 H       0.32708255      -0.48902209       1.52713958
 H       2.08744455      -0.14672453       1.67307049
 H      -0.01176797      -3.08131819       2.27389668
27
step 97
 C       1.64722085      -1.89268304       0.59840178
 N       2.74252482      -1.92147290      -0.08377305
 N       0.78190918      -2.94474958       0.36663934
 C       1.48914556      -3.82852591      -0.52466984
 O       1.05588217      -4.92621321      -0.84834028
 C       2.71223469      -3.10242735      -0.85882768
 C       3.66018338      -3.54492854      -1.77186592
 H       3.51846582      -4.58004397      -2.09507116
 C       4.84339490      -2.91552263      -2.22558509
 C       5.23461034      -1.60569358      -1.72613458
 H       4.63122452      -1.15510254      -0.92119141
 C       5.62947918      -3.49343052      -3.24102831
 H       5.42018144      -4.51891623      -3.58281437
 C       6.33495926      -0.96513149      -2.16797407
 H       6.67471257      -0.01165976      -1.76159635
 C       6.75302359      -2.85164415      -3.73301682
 H       7.33289169      -3.32151110      -4.52368613
 C       7.14236956      -1.55641775      -3.23450522
 O       8.08534553      -0.90316731      -3.69400502
 C      -0.22201651      -3.49292792       1.30523308
 H      -0.31105907      -4.57362849       1.31579432
 H      -1.20083095      -3.06112332       1.02879629
 C       1.31686241      -0.95840721       1.68382160
 H       1.39962165      -1.43844793       2.69181263
 H       0.32767385      -0.48847018       1.52246140
 H       2.08547852      -0.15413298       1.67205961
 H      -0.01455634      -3.07629147       2.27806254
27
step 98
 C       1.64812209      -1.89535837       0.59981721
 N       2.74147574      -1.92191947      -0.08157266
 N       0.78489392      -2.94200585       0.36415410
 C       1.49060751      -3.82831119      -0.52568861
 O       1.05545223      -4.92817433      -0.84825993
 C       2.71164371      -3.10021373      -0.86099126
 C       3.65753351      -3.54466192      -1.77316162
 H       3.51236527      -4.57828811      -2.10068320
 C       4.84501055      -2.91692698      -2.22219058
 C       5.23559542      -1.60487195      -1.72443991
 H       4.62354088      -1.15947001      -0.91178049
 C       5.63069609      -3.49489368      -3.23980320
 H       5.42631643      -4.51264896      -3.58318784
 C       6.33389712      -0.96554967      -2.17004589
 H       6.67899661      -0.00481806      -1.76065568
 C       6.75259065      -2.85029098      -3.73442910
 H       7.32644454      -3.32600349      -4.51987296
 C       7.14052040      -1.55627722      -3.23678591
 O       8.08451620      -0.90321545      -3.69417904
 C      -0.22356633      -3.49585993       1.30755283
 H      -0.31641029      -4.57794488       1.31695242
 H      -1.19795317      -3.06150602       1.02961723
 C       1.31864712      -0.95437557       1.68417409
 H       1.41087636      -1.43757022       2.68446573
 H       0.32918660      -0.48871765       1.51854876
 H       2.08238491      -0.16228018       1.67112803
 H      -0.01683681      -3.07188448       2.28364428
27
step 99
 C       1.64900061      -1.89809296       0.60133044
 N       2.74037303      -1.92244193      -0.07945629
 N       0.78792805      -2.93958560       0.36160546
 C       1.49205789      -3.82803183      -0.52666167
 O       1.05504248      -4.93009796      -0.84817701
 C       2.71097787      -3.09802320      -0.86313138
 C       3.65495246      -3.54441797      -1.77436423
 H       3.50579155      -4.57594923      -2.10680617
 C       4.84650400      -2.91813746      -2.21868773
 C       5.23640870      -1.60415252      -1.72262260
 H       4.61677991      -1.16460748      -0.90383123
 C       5.63214968      -3.49634537      -3.23861821
 H       5.43193033      -4.50580007      -3.58358518
 C       6.33289014      -0.96601524      -2.17214806
 H       6.68268117       0.00100832      -1.76027042
 C       6.75194957      -2.84903885      -3.73574344
 H       7.32037017      -3.33020863      -4.51607320
 C       7.13863869      -1.55600644      -3.23904732
 O       8.08380359      -0.90325700      -3.69441844
 C      -0.22516194      -3.49846194       1.30973007
 H      -0.32059444      -4.58227212       1.31752406
 H      -1.19499621      -3.06256605       1.03022123
 C       1.32052130      -0.95013364       1.68463857
 H       1.42116496      -1.43608282       2.67563488
 H       0.33158550      -0.48973429       1.51548164
 H       2.07870135      -0.17050914       1.67021275
 H      -0.01865573      -3.06833406       2.29021776
27
step 100
 C       1.64985393      -1.90085203       0.60295824
 N       2.73923879      -1.92303720      -0.07743691
 N       0.79096740      -2.93752318       0.35901910
 C       1.49348362      -3.82771012      -0.52759948
 O       1.05466224      -4.93196123      -0.84808491
 C       2.71023068      -3.09586428      -0.86524124
 C       3.65245897      -3.54419066      -1.77548144
 H       3.49876404      -4.57301599      -2.11341467
 C       4.84787463      -2.91916045      -2.21509025
 C       5.23702298      -1.60354153      -1.72065887
 H       4.61126544      -1.17057283      -0.89766519
 C       5.63384098      -3.49773029      -3.23745033
 H       5.43687607      -4.49893898      -3.58414974
 C       6.33195071      -0.96648134      -2.17425658
 H       6.68558510       0.00535324      -1.76064636
 C       6.75108004      -2.84788982      -3.73693996
 H       7.31489473      -3.33420391      -4.51255043
 C       7.13673090      -1.55560223      -3.24128746
 O       8.08320863      -0.90329013      -3.69472475
 C      -0.22676609      -3.50071939       1.31178077
 H      -0.32354662      -4.58642748       1.31753673
 H      -1.19213681      -3.06423578       1.03055722
 C       1.32245100      -0.94575268       1.68517438
 H       1.43038464      -1.43412527       2.66576229
 H       0.33475860      -0.49144896       1.51331320
 H       2.07505338      -0.17808499       1.66924554
 H      -0.02007244      -3.06587864       2.29732015
27
step 101
 C       1.65068044      -1.90360111       0.60471571
 N       2.73809481      -1.92370180      -0.07552666
 N       0.79396916      -2.93584895       0.35642086
 C       1.49487174      -3.82736857      -0.52851246
 O       1.05432056      -4.93374234      -0.84797749
 C       2.70939652      -3.09374526      -0.86731448
 C       3.65007079      -3.54397224      -1.77652066
 H       3.49130447      -4.56949823      -2.12048687
 C       4.84912316      -2.92000410      -2.21141345
 C       5.23742063      -1.60304883      -1.71853536
 H       4.60722527      -1.17735528      -0.89347819
 C       5.63576678      -3.49899343      -3.23627404
 H       5.44101325      -4.49264347      -3.58503169
 C       6.33108607      -0.96691198      -2.17635133
 H       6.68757260       0.00787820      -1.76193368
 C       6.74996737      -2.84684460      -3.73800260
 H       7.31021591      -3.33805633      -4.50953712
 C       7.13480392      -1.55506207      -3.24350470
 O       8.08273129      -0.90331358      -3.69509918
 C      -0.22834059      -3.50262309       1.31372152
 H      -0.32521536      -4.59023098       1.31701926
 H      -1.18956448      -3.06643111       1.03057665
 C       1.32440174      -0.94130607       1.68573609
 H       1.43846445      -1.43188439       2.65538014
 H       0.33852268      -0.49375230       1.51206952
 H       2.07210651      -0.18424734       1.66815514
 H      -0.02115099      -3.06473753       2.30449126
27
step 102
 C       1.65147941      -1.90630676       0.60661587
 N       2.73696228      -1.92443186      -0.07373672
 N       0.79689247      -2.93458879       0.35383655
 C       1.49620956      -3.82702933      -0.52941078
 O       1.05402608      -4.93542100      -0.84784920
 C       2.70847075      -3.09167405      -0.86934530
 C       3.64780438      -3.54375353      -1.77748882
 H       3.48343697      -4.56542528      -2.12800452
 C       4.85025150      -2.92067813      -2.20767394
 C       5.23759429      -1.60268758      -1.71624970
 H       4.60478481      -1.18487738      -0.89133483
 C       5.63791899      -3.50008488      -3.23506318
 H       5.44421835      -4.48744474      -3.58636950
 C       6.33029777      -0.96728320      -2.17841654
 H       6.68855820       0.00838361      -1.76422195
 C       6.74860380      -2.84590359      -3.73892085
 H       7.30648707      -3.34180900      -4.50721320
 C       7.13286493      -1.55438418      -3.24569766
 O       8.08237064      -0.90332673      -3.69554261
 C      -0.22984800      -3.50416905       1.31556671
 H      -0.32556468      -4.59351846       1.31600037
 H      -1.18746741      -3.06905858       1.03023699
 C       1.32634334      -0.93686373       1.68627557
 H       1.44536690      -1.42958066       2.64508263
 H       0.34263318      -0.49650126       1.51175045
 H       2.07049653      -0.18828313       1.66687083
 H      -0.02195329      -3.06509347       2.31130788
27
step 103
 C       1.65225107      -1.90893726       0.60866916
 N       2.73586138      -1.92522318      -0.07207710
 N       0.79969884      -2.93376372       0.35129188
 C       1.49748480      -3.82671361      -0.53030403
 O       1.05378683      -4.93697876      -0.84769521
 C       2.70744983      -3.08965822      -0.87132850
 C       3.64567467      -3.54352416      -1.77839230
 H       3.47518830      -4.56084289      -2.13595253
 C       4.85126259      -2.92119358      -2.20388930
 C       5.23754731      -1.60247392      -1.71381082
 H       4.60396355      -1.19299823      -0.89116630
 C       5.64028408      -3.50096491      -3.23379298
 H       5.44639556      -4.48376863      -3.58826906
 C       6.32958137      -0.96758354      -2.18044092
 H       6.68850926       0.00681382      -1.76753803
 C       6.74698959      -2.84506771      -3.73969118
 H       7.30380470      -3.34546988      -4.50568947
 C       7.13092126      -1.55356758      -3.24786515
 O       8.08212484      -0.90332948      -3.69605559
 C      -0.23125324      -3.50535791       1.31732618
 H      -0.32457570      -4.59615275       1.31450750
 H      -1.18601698      -3.07202339       1.02950570
 C       1.32825578      -0.93248583       1.68674481
 H       1.45108733      -1.42744818       2.63548759
 H       0.34679904      -0.49952584       1.51233177
 H       2.07074425      -0.18961287       1.66532763
 H      -0.02253383      -3.06707955       2.31740972
27
step 104
 C       1.65299649      -1.91146326       0.61088313
 N       2.73481095      -1.92607129      -0.07055648
 N       0.80235271      -2.93338959       0.34881233
 C       1.49868575      -3.82644119      -0.53120105
 O       1.05361018      -4.93839937      -0.84751146
 C       2.70633146      -3.08770495      -0.87325963
 C       3.64369474      -3.54327306      -1.77923691
 H       3.46658816      -4.55580885      -2.14431795
 C       4.85216025      -2.92156267      -2.20007780
 C       5.23729388      -1.60242651      -1.71123892
 H       4.60467377      -1.20151776      -0.89277093
 C       5.64284253      -3.50160851      -3.23244200
 H       5.44748664      -4.48188316      -3.59078394
 C       6.32892648      -0.96781426      -2.18241779
 H       6.68744690       0.00325826      -1.77184554
 C       6.74513353      -2.84433900      -3.74031777
 H       7.30220130      -3.34900490      -4.50499823
 C       7.12898024      -1.55261215      -3.25000617
 O       8.08199123      -0.90332233      -3.69663840
 C      -0.23252510      -3.50619423       1.31900355
 H      -0.32224781      -4.59803236       1.31256572
 H      -1.18535210      -3.07523761       1.02836426
 C       1.33013486      -0.92821712       1.68709914
 H       1.45565028      -1.42570856       2.62718798
 H       0.35070304      -0.50263816       1.51376898
 H       2.07317137      -0.18787366       1.66347243
 H      -0.02293588      -3.07077046       2.32251757
27
step 105
 C       1.65371752      -1.91385840       0.61326216
 N       2.73382812      -1.92697153      -0.06918205
 N       0.80482179      -2.93347675       0.34642307
 C       1.49980139      -3.82622999      -0.53210973
 O       1.05350271      -4.93966900      -0.84729481
 C       2.70511460      -3.08582093      -0.87513497
 C       3.64187563      -3.54298892      -1.78002784
 H       3.45766973      -4.55038772      -2.15308868
 C       4.85294900      -2.92179855      -2.19625808
 C       5.23685875      -1.60256612      -1.70856511
 H       4.60672230      -1.21018202      -0.89581820
 C       5.64556863      -3.50200844      -3.23099369
 H       5.44747805      -4.48186373      -3.59390103
 C       6.32831693      -0.96798906      -2.18434502
 H       6.68544548      -0.00205058      -1.77704589
 C       6.74305294      -2.84372060      -3.74081250
 H       7.30164459      -3.35233693      -4.50509300
 C       7.12704914      -1.55151877      -3.25211984
 O       8.08196631      -0.90330625      -3.69729102
 C      -0.23363765      -3.50668572       1.32059507
 H      -0.31859930      -4.59909754       1.31019675
 H      -1.18556521      -3.07862765       1.02681201
 C       1.33199562      -0.92408343       1.68730086
 H       1.45910315      -1.42454083       2.62069758
 H       0.35402726      -0.50564403       1.51600244
 H       2.07784047      -0.18297675       1.66127018
 H      -0.02318889      -3.07617780       2.32644506
27
step 106
 C       1.65441662      -1.91609990       0.61580725
 N       2.73292798      -1.92791913      -0.06795935
 N       0.80707752      -2.93402982       0.34414893
 C       1.50082145      -3.82609574      -0.53303681
 O       1.05347012      -4.94077648      -0.84704302
 C       2.70379959      -3.08401245      -0.87695167
 C       3.64022606      -3.54266072      -1.78076977
 H       3.44847030      -4.54464509      -2.16225160
 C       4.85363392      -2.92191519      -2.19244889
 C       5.23627656      -1.60291507      -1.70583057
 H       4.60981709      -1.21869076      -0.89985859
 C       5.64843055      -3.50217603      -3.22943706
 H       5.44640355      -4.48358466      -3.59753523
 C       6.32773127      -0.96813356      -2.18622497
 H       6.68263043      -0.00874317      -1.78298106
 C       6.74077299      -2.84321639      -3.74119413
 H       7.30204318      -3.35535096      -4.50585720
 C       7.12513507      -1.55028930      -3.25420546
 O       8.08204581      -0.90328271      -3.69801316
 C      -0.23457117      -3.50684257       1.32208885
 H      -0.31366732      -4.59933337       1.30741818
 H      -1.18669167      -3.08213991       1.02486903
 C       1.33387204      -0.92009171       1.68732277
 H       1.46150779      -1.42405190       2.61639818
 H       0.35648252      -0.50835647       1.51896379
 H       2.08453894      -0.17512119       1.65870846
 H      -0.02330679      -3.08324858       2.32910544
27
step 107
 C       1.65509670      -1.91816899       0.61851597
 N       2.73212329      -1.92890927      -0.06689214
 N       0.80909536      -2.93504755       0.34201433
 C       1.50173658      -3.82605157      -0.53398779
 O       1.05351716      -4.94171346      -0.84675486
 C       2.70238809      -3.08228527      -0.87870769
 C       3.63875227      -3.54227829      -1.78146693
 H       3.43903195      -4.53864190      -2.17179072
 C       4.85422051      -2.92192716      -2.18866883
 C       5.23559035      -1.60349636      -1.70308482
 H       4.61358150      -1.22670883      -0.90434284
 C       5.65139098      -3.50213954      -3.22776655
 H       5.44434171      -4.48673942      -3.60153478
 C       6.32714348      -0.96828402      -2.18806419
 H       6.67917351      -0.01632536      -1.78943920
 C       6.73832560      -2.84283011      -3.74148690
 H       7.30325762      -3.35790446      -4.50712007
 C       7.12324491      -1.54892673      -3.25626249
 O       8.08222478      -0.90325356      -3.69880427
 C      -0.23531278      -3.50667694       1.32346461
 H      -0.30750728      -4.59877008       1.30424292
 H      -1.18870429      -3.08574393       1.02257769
 C       1.33581240      -0.91623348       1.68715082
 H       1.46293193      -1.42425312       2.61449815
 H       0.35783935      -0.51061023       1.52258262
 H       2.09281253      -0.16475922       1.65579918
 H      -0.02328705      -3.09186666       2.33051419
27
step 108
 C       1.65576090      -1.92005134       0.62138234
 N       2.73142419      -1.92993722      -0.06598234
 N       0.81085510      -2.93652279       0.34004318
 C       1.50253839      -3.82610783      -0.53496676
 O       1.05364760      -4.94247454      -0.84643010
 C       2.70088314      -3.08064470      -0.88040184
 C       3.63745786      -3.54183273      -1.78212323
 H       3.42940226      -4.53242930      -2.18168511
 C       4.85471456      -2.92184952      -2.18493614
 C       5.23484911      -1.60433246      -1.70038288
 H       4.61757956      -1.23388303      -0.90865495
 C       5.65440814      -3.50194054      -3.22598108
 H       5.44140878      -4.49088414      -3.60569580
 C       6.32652416      -0.96848537      -2.18987271
 H       6.67528417      -0.02420090      -1.79616454
 C       6.73574790      -2.84256434      -3.74171861
 H       7.30511480      -3.35984121      -4.50867696
 C       7.12138528      -1.54743523      -3.25829062
 O       8.08249758      -0.90322103      -3.69966357
 C      -0.23585646      -3.50620279       1.32469388
 H      -0.30019172      -4.59748045       1.30067884
 H      -1.19151389      -3.08943235       1.02000236
 C       1.33787163      -0.91249045       1.68678544
 H       1.46344248      -1.42504902       2.61501158
 H       0.35795634      -0.51227526       1.52679254
 H       2.10203709      -0.15252505       1.65257708
 H      -0.02311052      -3.10185695       2.33078764
27
step 109
 C       1.65641246      -1.92173728       0.62439698
 N       2.73083802      -1.93099834      -0.06522992
 N       0.81234100      -2.93844247       0.33825879
 C       1.50321958      -3.82627181      -0.53597632
 O       1.05386416      -4.94305738      -0.84606956
 C       2.69928905      -3.07909556      -0.88203380
 C       3.63634362      -3.54131687      -1.78274239
 H       3.41963489      -4.52604462      -2.19190718
 C       4.85512202      -2.92169766      -2.18126846
 C       5.23410423      -1.60544348      -1.69778094
 H       4.62135470      -1.23986572      -0.91216163
 C       5.65743708      -3.50162910      -3.22408268
 H       5.43774829      -4.49549404      -3.60978252
 C       6.32584211      -0.96878789      -2.19166303
 H       6.67119569      -0.03170778      -1.80287311
 C       6.73308054      -2.84241935      -3.74191871
 H       7.30742385      -3.36100622      -4.51031109
 C       7.11956253      -1.54582014      -3.26028977
 O       8.08285799      -0.90318764      -3.70059002
 C      -0.23620259      -3.50543588       1.32574067
 H      -0.29180869      -4.59557446       1.29672883
 H      -1.19497600      -3.09321806       1.01722713
 C       1.34010251      -0.90884035       1.68624110
 H       1.46310225      -1.42624112       2.61776284
 H       0.35680155      -0.51326712       1.53153530
 H       2.11150607      -0.13914874       1.64909537
 H      -0.02274225      -3.11299233       2.33013672
27
step 110
 C       1.65705461      -1.92322194       0.62754711
 N       2.73036913      -1.93208822      -0.06463295
 N       0.81354197      -2.94078776       0.33668378
 C       1.50377397      -3.82654762      -0.53701755
 O       1.05416847      -4.94346268      -0.84567509
 C       2.69761140      -3.07764215      -0.88360402
 C       3.63540757      -3.54072547      -1.78332805
 H       3.40978994      -4.51950895      -2.20242129
 C       4.85544890      -2.92148712      -2.17768265
 C       5.23340487      -1.60684494      -1.69533085
 H       4.62448086      -1.24434470      -0.91427746
 C       5.66043122      -3.50125883      -3.22207490
 H       5.43351938      -4.50002137      -3.61354916
 C       6.32506644      -0.96924267      -2.19344838
 H       6.66714516      -0.03817101      -1.80927525
 C       6.73036590      -2.84239218      -3.74211624
 H       7.30999147      -3.36126003      -4.51181403
 C       7.11778270      -1.54408804      -3.26226015
 O       8.08329929      -0.90315612      -3.70158238
 C      -0.23635689      -3.50439400       1.32656286
 H      -0.28245980      -4.59319134       1.29239128
 H      -1.19890269      -3.09712884       1.01435177
 C       1.34254805      -0.90526161       1.68554421
 H       1.46197062      -1.42754647       2.62241528
 H       0.35446242      -0.51355232       1.53676209
 H       2.12051259      -0.12537542       1.64541975
 H      -0.02213352      -3.12500381       2.32885467
27
step 111
 C       1.65769044      -1.92450520       0.63081680
 N       2.73001890      -1.93320274      -0.06418755
 N       0.81445156      -2.94353434       0.33533987
 C       1.50419659      -3.82693602      -0.53808994
 O       1.05456109      -4.94369431      -0.84524956
 C       2.69585686      -3.07628829      -0.88511369
 C       3.63464486      -3.54005537      -1.78388386
 H       3.39993385      -4.51282669      -2.21318302
 C       4.85570115      -2.92123346      -2.17419457
 C       5.23279281      -1.60854509      -1.69307381
 H       4.62662028      -1.24707628      -0.91453836
 C       5.66334387      -3.50088239      -3.21996151
 H       5.42888546      -4.50394633      -3.61675989
 C       6.32416904      -0.96989581      -2.19524063
 H       6.66334827      -0.04297037      -1.81510392
 C       6.72764640      -2.84247586      -3.74233820
 H       7.31263558      -3.36049066      -4.51300310
 C       7.11605155      -1.54224672      -3.26420230
 O       8.08381430      -0.90312933      -3.70263918
 C      -0.23632905      -3.50309711       1.32711429
 H      -0.27225813      -4.59048937       1.28766112
 H      -1.20307825      -3.10120048       1.01148624
 C       1.34523626      -0.90173608       1.68472994
 H       1.46010712      -1.42862649       2.62851677
 H       0.35114182      -0.51314763       1.54243189
 H       2.12841308      -0.11190209       1.64162213
 H      -0.02122557      -3.13759391       2.32729704
27
step 112
 C       1.65832290      -1.92559157       0.63418714
 N       2.72978569      -1.93433804      -0.06388800
 N       0.81506794      -2.94665270       0.33424771
 C       1.50448375      -3.82743440      -0.53919138
 O       1.05504142      -4.94375920      -0.84479684
 C       2.69403313      -3.07503724      -0.88656468
 C       3.63404794      -3.53930544      -1.78441352
 H       3.39013901      -4.50598667      -2.22413920
 C       4.85588457      -2.92095217      -2.17081895
 C       5.23229780      -1.61054268      -1.69103465
 H       4.62757628      -1.24791563      -0.91266906
 C       5.66612973      -3.50054793      -3.21774549
 H       5.42400420      -4.50681651      -3.61920491
 C       6.32312718      -0.97078207      -2.19704783
 H       6.65997188      -0.04561500      -1.82014538
 C       6.72496287      -2.84265909      -3.74260798
 H       7.31519667      -3.35862293      -4.51373515
 C       7.11437459      -1.54030507      -3.26611707
 O       8.08439550      -0.90311024      -3.70375877
 C      -0.23613100      -3.50156760       1.32734764
 H      -0.26132608      -4.58763382       1.28253145
 H      -1.20727643      -3.10546951       1.00874435
 C       1.34817773      -0.89825036       1.68383864
 H       1.45757641      -1.42912028       2.63555219
 H       0.34714038      -0.51211369       1.54850723
 H       2.13466929      -0.09933482       1.63777492
 H      -0.01995517      -3.15045321       2.32585262
27
step 113
 C       1.65895483      -1.92648987       0.63763652
 N       2.72966493      -1.93549072      -0.06372686
 N       0.81539390      -2.95010863       0.33342661
 C       1.50463297      -3.82803683      -0.54031820
 O       1.05560789      -4.94366709      -0.84432171
 C       2.69214887      -3.07389186      -0.88795950
 C       3.63360642      -3.53847638      -1.78492062
 H       3.38048306      -4.49896428      -2.23522837
 C       4.85600473      -2.92065846      -2.16756926
 C       5.23193435      -1.61282536      -1.68921795
 H       4.62732715      -1.24683702      -0.90862717
 C       5.66874615      -3.50029648      -3.21542833
 H       5.41901937      -4.50827444      -3.62071231
 C       6.32192581      -0.97191913      -2.19887217
 H       6.65711013      -0.04581050      -1.82426603
 C       6.72235318      -2.84292610      -3.74294435
 H       7.31754707      -3.35562510      -4.51391703
 C       7.11275682      -1.53827319      -3.26800553
 O       8.08503530      -0.90310162      -3.70493940
 C      -0.23577501      -3.49983018       1.32721798
 H      -0.24979343      -4.58478367       1.27699575
 H      -1.21127738      -3.10996634       1.00623745
 C       1.35136571      -0.89479604       1.68291237
 H       1.45445282      -1.42867611       2.64299360
 H       0.34282852      -0.51054445       1.55494870
 H       2.13887168      -0.08816368       1.63394629
 H      -0.01826238      -3.16327915       2.32490554
27
step 114
 C       1.65958893      -1.92721288       0.64114104
 N       2.72964936      -1.93665766      -0.06369508
 N       0.81543650      -2.95386368       0.33289430
 C       1.50464312      -3.82873393      -0.54146519
 O       1.05625772      -4.94343079      -0.84382991
 C       2.69021340      -3.07285440      -0.88930109
 C       3.63330767      -3.53757043      -1.78540884
 H       3.37104681      -4.49172772      -2.24638304
 C       4.85606692      -2.92036719      -2.16445759
 C       5.23170143      -1.61536935      -1.68760751
 H       4.62603073      -1.24393857      -0.90261063
 C       5.67115459      -3.50016007      -3.21300986
 H       5.41405435      -4.50807464      -3.62115586
 C       6.32055889      -0.97330401      -2.20070867
 H       6.65476878      -0.04350499      -1.82742988
 C       6.71985087      -2.84325695      -3.74336046
 H       7.31959617      -3.35151138      -4.51351037
 C       7.11120306      -1.53616206      -3.26986910
 O       8.08572581      -0.90310628      -3.70617912
 C      -0.23527183      -3.49791186       1.32668688
 H      -0.23779565      -4.58207981       1.27105048
 H      -1.21488404      -3.11470905       1.00406792
 C       1.35477783      -0.89136961       1.68199219
 H       1.45082373      -1.42697823       2.65034306
 H       0.33861162      -0.50855420       1.56170921
 H       2.14075062      -0.07874908       1.63019639
 H      -0.01609924      -3.17579465       2.32479243
27
step 115
 C       1.66022786      -1.92777679       0.64467491
 N       2.72972929      -1.93783616      -0.06378221
 N       0.81520699      -2.95787577       0.33266659
 C       1.50451435      -3.82951309      -0.54262562
 O       1.05698713      -4.94306579      -0.84332798
 C       2.68823667      -3.07192655      -0.89059278
 C       3.63313679      -3.53659098      -1.78588163
 H       3.36191269      -4.48424224      -2.25753163
 C       4.85607617      -2.92009271      -2.16149460
 C       5.23158445      -1.61814062      -1.68616884
 H       4.62399802      -1.23942952      -0.89502592
 C       5.67332159      -3.50016058      -3.21048817
 H       5.40920715      -4.50609318      -3.62045991
 C       6.31902953      -0.97491241      -2.20254509
 H       6.65286447      -0.03889652      -1.82969996
 C       6.71748418      -2.84362800      -3.74386339
 H       7.32129480      -3.34634306      -4.51253495
 C       7.10971766      -1.53398355      -3.27170932
 O       8.08645919      -0.90312673      -3.70747589
 C      -0.23462897      -3.49584168       1.32572631
 H      -0.22547263      -4.57963351       1.26469796
 H      -1.21793498      -3.11969914       1.00232392
 C       1.35837867      -0.88797245       1.68111605
 H       1.44679094      -1.42376615       2.65716421
 H       0.33489505      -0.50626475       1.56872938
 H       2.14017958      -0.07131559       1.62657447
 H      -0.01343917      -3.18776487       2.32575829
27
step 116
 C       1.66087422      -1.92820075       0.64821091
 N       2.72989291      -1.93902381      -0.06397664
 N       0.81472048      -2.96209978       0.33275706
 C       1.50424811      -3.83035861      -0.54379143
 O       1.05779131      -4.94259013      -0.84282320
 C       2.68622903      -3.07110946      -0.89183814
 C       3.63307711      -3.53554215      -1.78634219
 H       3.35316221      -4.47647647      -2.26860142
 C       4.85603722      -2.91984871      -2.15868949
 C       5.23155934      -1.62109709      -1.68485431
 H       4.62164426      -1.23360430      -0.88642710
 C       5.67521985      -3.50030899      -3.20785975
 H       5.40454661      -4.50233166      -3.61860207
 C       6.31734887      -0.97670135      -2.20436320
 H       6.65123748      -0.03240348      -1.83122474
 C       6.71527517      -2.84401262      -3.74445380
 H       7.32263614      -3.34022650      -4.51106759
 C       7.10830457      -1.53175023      -3.27352786
 O       8.08722756      -0.90316532      -3.70882754
 C      -0.23384930      -3.49365061       1.32432205
 H      -0.21296780      -4.57751849       1.25794904
 H      -1.22031468      -3.12491858       1.00107491
 C       1.36212249      -0.88461097       1.68031736
 H       1.44247048      -1.41884751       2.66310444
 H       0.33205180      -0.50379389       1.57593449
 H       2.13717506      -0.06594864       1.62311652
 H      -0.01028460      -3.19900853       2.32792037
27
step 117
 C       1.66153066      -1.92850621       0.65172092
 N       2.73012662      -1.94021855      -0.06426577
 N       0.81399580      -2.96648827       0.33317667
 C       1.50384695      -3.83125199      -0.54495327
 O       1.05866453      -4.94202401      -0.84232349
 C       2.68420116      -3.07040372      -0.89304094
 C       3.63311032      -3.53442840      -1.78679319
 H       3.34487382      -4.46840711      -2.27952121
 C       4.85595462      -2.91964804      -2.15604994
 C       5.23159732      -1.62419162      -1.68360929
 H       4.61943106      -1.22680969      -0.87744243
 C       5.67682894      -3.50060505      -3.20511970
 H       5.40010954      -4.49691714      -3.61561414
 C       6.31553405      -0.97861432      -2.20614083
 H       6.64967555      -0.02460396      -1.83221265
 C       6.71323923      -2.84438212      -3.74512607
 H       7.32365492      -3.33330919      -4.50923872
 C       7.10696707      -1.52947534      -3.27532632
 O       8.08802335      -0.90322395      -3.71023188
 C      -0.23293030      -3.49137152       1.32247560
 H      -0.20042745      -4.57576638       1.25082541
 H      -1.22196007      -3.13032869       1.00036855
 C       1.36595581      -0.88129707       1.67962404
 H       1.43799107      -1.41210512       2.66790845
 H       0.33039599      -0.50124627       1.58323325
 H       2.13189461      -0.06259262       1.61984319
 H      -0.00667156      -3.20940248       2.33124681
27
step 118
 C       1.66219982      -1.92871633       0.65517649
 N       2.73041553      -1.94141855      -0.06463632
 N       0.81305509      -2.97099210       0.33393343
 C       1.50331459      -3.83217225      -0.54610072
 O       1.05960022      -4.94138961      -0.84183726
 C       2.68216381      -3.06980928      -0.89420495
 C       3.63321703      -3.53325410      -1.78723674
 H       3.33711998      -4.46002490      -2.29022479
 C       4.85583271      -2.91950253      -2.15358209
 C       5.23166946      -1.62737471      -1.68237811
 H       4.61781234      -1.21941238      -0.86870471
 C       5.67813600      -3.50103724      -3.20226207
 H       5.39589897      -4.49009827      -3.61158144
 C       6.31360577      -0.98058764      -2.20785439
 H       6.64794136      -0.01616282      -1.83290244
 C       6.71138487      -2.84470675      -3.74586861
 H       7.32442266      -3.32577282      -4.50722428
 C       7.10570786      -1.52717255      -3.27710619
 O       8.08883913      -0.90330420      -3.71168666
 C      -0.23186386      -3.48903921       1.32020447
 H      -0.18800017      -4.57436733       1.24336104
 H      -1.22286386      -3.13587039       1.00022870
 C       1.36981956      -0.87804853       1.67905789
 H       1.43349173      -1.40350009       2.67142649
 H       0.33016230      -0.49870654       1.59051815
 H       2.12463372      -0.06104981       1.61675789
 H      -0.00266960      -3.21887859       2.33555608
27
step 119
 C       1.66288432      -1.92885539       0.65854939
 N       2.73074383      -1.94262218      -0.06507456
 N       0.81192361      -2.97556108       0.33503209
 C       1.50265569      -3.83309628      -0.54722242
 O       1.06059106      -4.94071065      -0.84137330
 C       2.68012769      -3.06932553      -0.89533385
 C       3.63337709      -3.53202330      -1.78767423
 H       3.32996484      -4.45133831      -2.30065361
 C       4.85567574      -2.91942272      -2.15129052
 C       5.23175027      -1.63059714      -1.68110883
 H       4.61719207      -1.21177124      -0.86079540
 C       5.67913612      -3.50158323      -3.19928027
 H       5.39188373      -4.48223687      -3.60664020
 C       6.31158592      -0.98255653      -2.20948122
 H       6.64579894      -0.00775929      -1.83353474
 C       6.70971394      -2.84495693      -3.74666470
 H       7.32504050      -3.31782448      -4.50523467
 C       7.10452888      -1.52485585      -3.27886869
 O       8.08966777      -0.90340721      -3.71318960
 C      -0.23063689      -3.48669046       1.31754063
 H      -0.17583611      -4.57327463       1.23560263
 H      -1.22307403      -3.14146602       1.00065507
 C       1.37365101      -0.87488938       1.67863418
 H       1.42911876      -1.39307170       2.67361813
 H       0.33149207      -0.49623491       1.59766714
 H       2.11581971      -0.06098205       1.61384514
 H       0.00162280      -3.22741493       2.34053668
27
step 120
 C       1.66358676      -1.92894812       0.66181224
 N       2.73109527      -1.94382794      -0.06556659
 N       0.81062948      -2.98014466       0.33647379
 C       1.50187574      -3.83399943      -0.54830634
 O       1.06162911      -4.94001193      -0.84094060
 C       2.67810327      -3.06895123      -0.89643112
 C       3.63356998      -3.53073944      -1.78810622
 H       3.32346216      -4.44237603      -2.31075903
 C       4.85548786      -2.91941766      -2.14917813
 C       5.23181998      -1.63381190      -1.67975663
 H       4.61789575      -1.20421619      -0.85420570
 C       5.67983229      -3.50221091      -3.19616757
 H       5.38800026      -4.47379315      -3.60097214
 C       6.30949572      -0.98446027      -2.21100141
 H       6.64303485      -0.00002706      -1.83432928
 C       6.70822231      -2.84510447      -3.74749365
 H       7.32562840      -3.30968545      -4.50349974
 C       7.10343127      -1.52253940      -3.28061466
 O       8.09050251      -0.90353370      -3.71473839
 C      -0.22923252      -3.48436400       1.31452767
 H      -0.16408595      -4.57241311       1.22760909
 H      -1.22268933      -3.14702244       1.00162412
 C       1.37738582      -0.87184981       1.67836134
 H       1.42502253      -1.38093481       2.67455290
 H       0.33442518      -0.49386451       1.60454632
 H       2.10599945      -0.06191866       1.61106934
 H       0.00608668      -3.23502349       2.34578280
27
step 121
 C       1.66430962      -1.92901918       0.66493902
 N       2.73145356      -1.94503442      -0.06609855
 N       0.80920338      -2.98469250       0.33825580
 C       1.50098086      -3.83485606      -0.54933998
 O       1.06270603      -4.93931884      -0.84054819
 C       2.67610066      -3.06868452      -0.89749994
 C       3.63377515      -3.52940533      -1.78853246
 H       3.31765361      -4.43318836      -2.32050407
 C       4.85527315      -2.91949467      -2.14724611
 C       5.23186597      -1.63697582      -1.67828600
 H       4.62015406      -1.19703333      -0.84931254
 C       5.68023507      -3.50288029      -3.19291786
 H       5.38415736      -4.46530215      -3.59479526
 C       6.30735437      -0.98624591      -2.21239908
 H       6.63947281       0.00648934      -1.83546909
 C       6.70690099      -2.84512391      -3.74833235
 H       7.32631116      -3.30157827      -4.50225030
 C       7.10241530      -1.52023741      -3.28234447
 O       8.09133695      -0.90368391      -3.71633076
 C      -0.22763192      -3.48210005       1.31121708
 H      -0.15289930      -4.57169024       1.21944999
 H      -1.22185114      -3.15243524       1.00309161
 C       1.38096042      -0.86896523       1.67824073
 H       1.42135395      -1.36727497       2.67440814
 H       0.33889704      -0.49160034       1.61101328
 H       2.09581677      -0.06327572       1.60837470
 H       0.01059305      -3.24173731       2.35083871
27
step 122
 C       1.66505519      -1.92909253       0.66790570
 N       2.73180281      -1.94624023      -0.06665692
 N       0.80767836      -2.98915511       0.34037131
 C       1.49997758      -3.83564015      -0.55031065
 O       1.06381313      -4.93865684      -0.84020495
 C       2.67412940      -3.06852294      -0.89854308
 C       3.63397249      -3.52802305      -1.78895190
 H       3.31256745      -4.42384715      -2.32986442
 C       4.85503557      -2.91965912      -2.14549384
 C       5.23188337      -1.64005063      -1.67667201
 H       4.62409517      -1.19045464      -0.84636562
 C       5.68036173      -3.50354624      -3.18952676
 H       5.38024499      -4.45733951      -3.58834989
 C       6.30517828      -0.98787068      -2.21366316
 H       6.63498237       0.01136266      -1.83709092
 C       6.70573754      -2.84499378      -3.74915714
 H       7.32720204      -3.29371279      -4.50169716
 C       7.10148044      -1.51796391      -3.28405798
 O       8.09216506      -0.90385769      -3.71796439
 C      -0.22581642      -3.47993966       1.30766444
 H      -0.14242270      -4.57100854       1.21120320
 H      -1.22073136      -3.15759393       1.00499626
 C       1.38431532      -0.86627391       1.67826654
 H       1.41826105      -1.35234086       2.67346303
 H       0.34474050      -0.48941934       1.61692101
 H       2.08597484      -0.06439288       1.60568692
 H       0.01501377      -3.24759926       2.35524397
27
step 123
 C       1.66582550      -1.92919097       0.67069066
 N       2.73212783      -1.94744404      -0.06722872
 N       0.80608964      -2.99348430       0.34280926
 C       1.49887262      -3.83632611      -0.55120580
 O       1.06494174      -4.93805071      -0.83991940
 C       2.67219835      -3.06846346      -0.89956282
 C       3.63414241      -3.52659408      -1.78936274
 H       3.30821835      -4.41444338      -2.33882810
 C       4.85477897      -2.91991427      -2.14391882
 C       5.23187506      -1.64300404      -1.67490089
 H       4.62974276      -1.18465085      -0.84548151
 C       5.68023478      -3.50416241      -3.18599281
 H       5.37614751      -4.45047598      -3.58187991
 C       6.30298058      -0.98930340      -2.21478778
 H       6.62948365       0.01430053      -1.83928004
 C       6.70471776      -2.84469778      -3.74994574
 H       7.32838641      -3.28627321      -4.50201075
 C       7.10062517      -1.51573276      -3.28575443
 O       8.09298137      -0.90405436      -3.71963705
 C      -0.22376987      -3.47792369       1.30392600
 H      -0.13279719      -4.57027727       1.20295212
 H      -1.21951667      -3.16238782       1.00726476
 C       1.38739940      -0.86381314       1.67842591
 H       1.41588548      -1.33643300       2.67208668
 H       0.35169348      -0.48727205       1.62212232
 H       2.07718024      -0.06459224       1.60291778
 H       0.01923100      -3.25265351       2.35857307
27
step 124
 C       1.66662221      -1.92933560       0.67327520
 N       2.73241455      -1.94864445      -0.06780175
 N       0.80447433      -2.99763377       0.34555430
 C       1.49767267      -3.83688947      -0.55201326
 O       1.06608323      -4.93752413      -0.83969951
 C       2.67031557      -3.06850247      -0.90056086
 C       3.63426633      -3.52511945      -1.78976268
 H       3.30460717      -4.40508476      -2.34739493
 C       4.85450699      -2.92026113      -2.14251657
 C       5.23185163      -1.64581042      -1.67297038
 H       4.63701700      -1.17972600      -0.84664155
 C       5.67988021      -3.50468579      -3.18231922
 H       5.37176096      -4.44522306      -3.57560984
 C       6.30077103      -0.99052520      -2.21577234
 H       6.62294845       0.01515330      -1.84206859
 C       6.70382729      -2.84422562      -3.75067904
 H       7.32990607      -3.27940648      -4.50330190
 C       7.09984725      -1.51355734      -3.28743250
 O       8.09378073      -0.90427289      -3.72134648
 C      -0.22148108      -3.47609171       1.30005578
 H      -0.12415553      -4.56942361       1.19478253
 H      -1.21839084      -3.16671204       1.00981717
 C       1.39017508      -0.86161370       1.67869935
 H       1.41435923      -1.31988858       2.67071915
 H       0.35941174      -0.48508546       1.62647445
 H       2.07007206      -0.06325774       1.59997281
 H       0.02314495      -3.25693986       2.36046757
27
step 125
 C       1.66744651      -1.92954544       0.67564398
 N       2.73265025      -1.94984010      -0.06836479
 N       0.80287121      -3.00155952       0.34858675
 C       1.49638412      -3.83730761      -0.55272156
 O       1.06722931      -4.93709893      -0.83955253
 C       2.66848811      -3.06863577      -0.90153823
 C       3.63432683      -3.52360006      -1.79014912
 H       3.30172187      -4.39589107      -2.35557448
 C       4.85422295      -2.92069847      -2.14128067
 C       5.23183094      -1.64845147      -1.67088974
 H       4.64573764      -1.17571307      -0.84969246
 C       5.67932544      -3.50508157      -3.17851548
 H       5.36701229      -4.44197667      -3.56972106
 C       6.29855606      -0.99152978      -2.21662157
 H       6.61540002       0.01391831      -1.84543548
 C       6.70305297      -2.84357351      -3.75134254
 H       7.33174859      -3.27321491      -4.50560881
 C       7.09914376      -1.51145052      -3.28909034
 O       8.09455838      -0.90451187      -3.72309044
 C      -0.21894603      -3.47448076       1.29610349
 H      -0.11661941      -4.56840104       1.18677948
 H      -1.21751570      -3.17047337       1.01257249
 C       1.39262330      -0.85969380       1.67906180
 H       1.41380138      -1.30306146       2.66984214
 H       0.36748885      -0.48276802       1.62984416
 H       2.06514515      -0.05992494       1.59676192
 H       0.02667920      -3.26049049       2.36065880
27
step 126
 C       1.66829900      -1.92983707       0.67778530
 N       2.73282385      -1.95102958      -0.06890780
 N       0.80132046      -3.00522028       0.35188268
 C       1.49501287      -3.83756059      -0.55332025
 O       1.06837223      -4.93679455      -0.83948477
 C       2.66672197      -3.06885863      -0.90249526
 C       3.63430787      -3.52203694      -1.79051948
 H       3.29953894      -4.38698879      -2.36338339
 C       4.85392976      -2.92122277      -2.14020267
 C       5.23183756      -1.65091682      -1.66867957
 H       4.65562924      -1.17257095      -0.85434954
 C       5.67859725      -3.50532732      -3.17459863
 H       5.36187715      -4.44096853      -3.56433127
 C       6.29633888      -0.99232341      -2.21734536
 H       6.60691136       0.01074018      -1.84930759
 C       6.70238372      -2.84274424      -3.75192711
 H       7.33384276      -3.26775333      -4.50889144
 C       7.09851120      -1.50942445      -3.29072558
 O       8.09530995      -0.90476961      -3.72486671
 C      -0.21616984      -3.47312436       1.29211300
 H      -0.11029674      -4.56719521       1.17902440
 H      -1.21701345      -3.17359522       1.01545363
 C       1.39474699      -0.85805394       1.67948447
 H       1.41431500      -1.28629830       2.66993891
 H       0.37548297      -0.48021704       1.63211296
 H       2.06268515      -0.05436113       1.59321105
 H       0.02978404      -3.26332856       2.35898273
27
step 127
 C       1.66917959      -1.93022433       0.67969141
 N       2.73292605      -1.95221152      -0.06942204
 N       0.79986336      -3.00857794       0.35541411
 C       1.49356412      -3.83763179      -0.55380019
 O       1.06950490      -4.93662743      -0.83950146
 C       2.66502199      -3.06916579      -0.90343151
 C       3.63419489      -3.52043162      -1.79087154
 H       3.29802542      -4.37850502      -2.37084186
 C       4.85362978      -2.92182834      -2.13927218
 C       5.23190201      -1.65320427      -1.66637116
 H       4.66632944      -1.17018367      -0.86020422
 C       5.67772030      -3.50541568      -3.17059394
 H       5.35639200      -4.44223642      -3.55948192
 C       6.29411985      -0.99292453      -2.21795854
 H       6.59760244       0.00590781      -1.85356221
 C       6.70181079      -2.84174674      -3.75242903
 H       7.33606156      -3.26303131      -4.51303456
 C       7.09794564      -1.50749050      -3.29233544
 O       8.09603136      -0.90504415      -3.72667305
 C      -0.21316815      -3.47205166       1.28812143
 H      -0.10527919      -4.56582677       1.17159249
 H      -1.21695257      -3.17602125       1.01839093
 C       1.39657139      -0.85667441       1.67993766
 H       1.41598400      -1.26991257       2.67144476
 H       0.38295049      -0.47732880       1.63318233
 H       2.06273380      -0.04661215       1.58927209
 H       0.03243801      -3.26546798       2.35538830
27
step 128
 C       1.67008736      -1.93071814       0.68135869
 N       2.73294951      -1.95338454      -0.06990023
 N       0.79854188      -3.01159793       0.35914929
 C       1.49204226      -3.83750855      -0.55415378
 O       1.07062108      -4.93661060      -0.83960659
 C       2.66339178      -3.06955150      -0.90434575
 C       3.63397496      -3.51878658      -1.79120380
 H       3.29714112      -4.37056126      -2.37796990
 C       4.85332476      -2.92250750      -2.13847690
 C       5.23205950      -1.65531967      -1.66400533
 H       4.67740237      -1.16836409      -0.86673882
 C       5.67671630      -3.50535484      -3.16653462
 H       5.35065732      -4.44562044      -3.55513668
 C       6.29189682      -0.99336295      -2.21848053
 H       6.58763554      -0.00015414      -1.85803132
 C       6.70132744      -2.84059528      -3.75284938
 H       7.33823181      -3.25901958      -4.51785872
 C       7.09744296      -1.50565903      -3.29391688
 O       8.09671875      -0.90533338      -3.72850719
 C      -0.20996782      -3.47128695       1.28415870
 H      -0.10164008      -4.56435149       1.16455062
 H      -1.21733939      -3.17771713       1.02132406
 C       1.39814066      -0.85551655       1.68039434
 H       1.41886972      -1.25416011       2.67469355
 H       0.38948413      -0.47401108       1.63297894
 H       2.06509529      -0.03700034       1.58492842
 H       0.03464797      -3.26691388       2.34994043
27
step 129
 C       1.67102050      -1.93132633       0.68278772
 N       2.73288887      -1.95454732      -0.07033664
 N       0.79739829      -3.01424959       0.36305303
 C       1.49045069      -3.83718271      -0.55437526
 O       1.07171552      -4.93675313      -0.83980280
 C       2.66183369      -3.07000964      -0.90523598
 C       3.63363675      -3.51710551      -1.79151584
 H       3.29684143      -4.36326677      -2.38478288
 C       4.85301565      -2.92325077      -2.13780282
 C       5.23234804      -1.65727618      -1.66163015
 H       4.68835978      -1.16686472      -0.87335280
 C       5.67560395      -3.50516686      -3.16246051
 H       5.34483099      -4.45078648      -3.55119152
 C       6.28966579      -0.99367835      -2.21893467
 H       6.57720847      -0.00690115      -1.86250848
 C       6.70092818      -2.83930837      -3.75319286
 H       7.34014959      -3.25565979      -4.52313796
 C       7.09699886      -1.50393940      -3.29546658
 O       8.09736856      -0.90563501      -3.73036686
 C      -0.20660677      -3.47084947       1.28024749
 H      -0.09943280      -4.56285693       1.15795583
 H      -1.21811651      -3.17867049       1.02420206
 C       1.39951119      -0.85452747       1.68083386
 H       1.42300729      -1.23922044       2.67986849
 H       0.39475234      -0.47019713       1.63145929
 H       2.06938063      -0.02607469       1.58019465
 H       0.03644784      -3.26766359       2.34281810
27
step 130
 C       1.67197616      -1.93205364       0.68398329
 N       2.73274080      -1.95569860      -0.07072710
 N       0.79647460      -3.01650657       0.36708725
 C       1.48879191      -3.83665094      -0.55446084
 O       1.07278404      -4.93705993      -0.84009129
 C       2.66034877      -3.07053367      -0.90609941
 C       3.63317058      -3.51539365      -1.79180861
 H       3.29707968      -4.35671324      -2.39128784
 C       4.85270263      -2.92404713      -2.13723432
 C       5.23280587      -1.65909260      -1.65929751
 H       4.69869190      -1.16539888      -0.87940369
 C       5.67439968      -3.50488406      -3.15841617
 H       5.33911332      -4.45727064      -3.54749338
 C       6.28742181      -0.99391774      -2.21934725
 H       6.56654395      -0.01369783      -1.86676012
 C       6.70060771      -2.83790755      -3.75346626
 H       7.34159796      -3.25287526      -4.52862024
 C       7.09660913      -1.50233977      -3.29698114
 O       8.09797740      -0.90594670      -3.73224979
 C      -0.20313300      -3.47075351       1.27640360
 H      -0.09868965      -4.56145705       1.15185438
 H      -1.21916867      -3.17888888       1.02698168
 C       1.40074343      -0.85364648       1.68124495
 H       1.42840182      -1.22518801       2.68696844
 H       0.39853382      -0.46585889       1.62861353
 H       2.07507543      -0.01452939       1.57511131
 H       0.03789617      -3.26770815       2.33430800
27
step 131
 C       1.67295045      -1.93290168       0.68495430
 N       2.73250400      -1.95683712      -0.07106905
 N       0.79581185      -3.01834723       0.37121158
 C       1.48706750      -3.83591494      -0.55440889
 O       1.07382354      -4.93753160      -0.84047174
 C       2.65893680      -3.07111680      -0.90693254
 C       3.63256851      -3.51365802      -1.79208473
 H       3.29780928      -4.35097036      -2.39748028
 C       4.85238495      -2.92488435      -2.13675447
 C       5.23346801      -1.66079056      -1.65705832
 H       4.70790815      -1.16367345      -0.88426403
 C       5.67311871      -3.50454473      -3.15444853
 H       5.33372762      -4.46453428      -3.54386305
 C       6.28516016      -0.99413164      -2.21974602
 H       6.55587520      -0.01986209      -1.87054200
 C       6.70035987      -2.83641619      -3.75367693
 H       7.34236501      -3.25058178      -4.53404872
 C       7.09626975      -1.50086699      -3.29845716
 O       8.09854204      -0.90626609      -3.73415366
 C      -0.19960279      -3.47100879       1.27263666
 H      -0.09942126      -4.56028409       1.14628145
 H      -1.22033479      -3.17839646       1.02962474
 C       1.40189417      -0.85281154       1.68162714
 H       1.43502512      -1.21207515       2.69579794
 H       0.40074169      -0.46101713       1.62446806
 H       2.08161192      -0.00311439       1.56973643
 H       0.03907233      -3.26703426       2.32479226
27
step 132
 C       1.67393842      -1.93386895       0.68571361
 N       2.73217917      -1.95796166      -0.07136151
 N       0.79544940      -3.01975492       0.37538411
 C       1.48527832      -3.83498147      -0.55422004
 O       1.07483200      -4.93816438      -0.84094240
 C       2.65759629      -3.07175200      -0.90773117
 C       3.63182431      -3.51190748      -1.79234862
 H       3.29898536      -4.34608300      -2.40334197
 C       4.85206099      -2.92574932      -2.13634522
 C       5.23436228      -1.66239091      -1.65495668
 H       4.71558493      -1.16143179      -0.88739018
 C       5.67177618      -3.50418866      -3.15060460
 H       5.32890001      -4.47201907      -3.54011777
 C       6.28287787      -0.99436886      -2.22015835
 H       6.54542769      -0.02472620      -1.87362120
 C       6.70017667      -2.83485833      -3.75383135
 H       7.34226031      -3.24869728      -4.53918124
 C       7.09597707      -1.49952655      -3.29989131
 O       8.09905937      -0.90659085      -3.73607611
 C      -0.19607831      -3.47162093       1.26895136
 H      -0.10161636      -4.55947868       1.14126150
 H      -1.22142417      -3.17722967       1.03209512
 C       1.40301082      -0.85196427       1.68199011
 H       1.44281364      -1.19982577       2.70598395
 H       0.40143231      -0.45574610       1.61908638
 H       2.08843076       0.00744299       1.56413650
 H       0.04007107      -3.26562729       2.31472919
27
step 133
 C       1.67493416      -1.93495095       0.68627771
 N       2.73176893      -1.95907097      -0.07160505
 N       0.79542405      -3.02071843       0.37956220
 C       1.48342468      -3.83386217      -0.55389722
 O       1.07580841      -4.93895037      -0.84150004
 C       2.65632453      -3.07243211      -0.90849049
 C       3.63093358      -3.51015267      -1.79260652
 H       3.30056568      -4.34207020      -2.40884008
 C       4.85172828      -2.92662842      -2.13598780
 C       5.23550545      -1.66390974      -1.65302399
 H       4.72141271      -1.15850009      -0.88839230
 C       5.67038807      -3.50385338      -3.14692941
 H       5.32484182      -4.47919459      -3.53609026
 C       6.28057529      -0.99467037      -2.22060886
 H       6.53539892      -0.02771014      -1.87580202
 C       6.70004756      -2.83325779      -3.75393391
 H       7.34112818      -3.24714962      -4.54380683
 C       7.09572787      -1.49832246      -3.30128046
 O       8.09952632      -0.90691877      -3.73801477
 C      -0.19262469      -3.47259198       1.26534914
 H      -0.10524214      -4.55917848       1.13680919
 H      -1.22223468      -3.17543269       1.03435602
 C       1.40412846      -0.85105316       1.68235128
 H       1.45166845      -1.18833608       2.71701582
 H       0.40079680      -0.45017138       1.61256806
 H       2.09502603       0.01649595       1.55837831
 H       0.04099540      -3.26347543       2.30462583
27
step 134
 C       1.67593093      -1.93614029       0.68666642
 N       2.73127776      -1.96016372      -0.07180166
 N       0.79576911      -3.02123222       0.38370347
 C       1.48150668      -3.83257322      -0.55344563
 O       1.07675265      -4.93987774      -0.84214006
 C       2.65511764      -3.07314995      -0.90920519
 C       3.62989380      -3.50840587      -1.79286642
 H       3.30251081      -4.33892604      -2.41392787
 C       4.85138358      -2.92750779      -2.13566304
 C       5.23690031      -1.66535497      -1.65127427
 H       4.72523226      -1.15482626      -0.88708958
 C       5.66897177      -3.50357123      -3.14346447
 H       5.32173584      -4.48559484      -3.53164296
 C       6.27825755      -0.99506292      -2.22111722
 H       6.52593982      -0.02839654      -1.87695206
 C       6.69995899      -2.83163727      -3.75398601
 H       7.33885767      -3.24588259      -4.54775850
 C       7.09551947      -1.49725724      -3.30262168
 O       8.09993990      -0.90724777      -3.73996721
 C      -0.18930700      -3.47392087       1.26183044
 H      -0.11024480      -4.55950630       1.13293077
 H      -1.22257047      -3.17305304       1.03636810
 C       1.40526923      -0.85003546       1.68273227
 H       1.46145777      -1.17747763       2.72829903
 H       0.39913723      -0.44446131       1.60504571
 H       2.10097350       0.02351477       1.55252256
 H       0.04194783      -3.26057538       2.29500178
27
step 135
 C       1.67692145      -1.93742683       0.68690239
 N       2.73071176      -1.96123850      -0.07195467
 N       0.79651343      -3.02129677       0.38776679
 C       1.47952450      -3.83113489      -0.55287269
 O       1.07766537      -4.94093107      -0.84285660
 C       2.65397074      -3.07389842      -0.90986957
 C       3.62870430      -3.50668060      -1.79313771
 H       3.30478388      -4.33662188      -2.41854645
 C       4.85102309      -2.92837368      -2.13535174
 C       5.23853438      -1.66672451      -1.64970198
 H       4.72705027      -1.15050007      -0.88353542
 C       5.66754625      -3.50336737      -3.14024640
 H       5.31972704      -4.49084381      -3.52667741
 C       6.27593545      -0.99555412      -2.22169629
 H       6.51714190      -0.02659076      -1.87702259
 C       6.69989423      -2.83001779      -3.75398556
 H       7.33538925      -3.24486011      -4.55092261
 C       7.09534964      -1.49633191      -3.30391228
 O       8.10029724      -0.90757586      -3.74193103
 C      -0.18618716      -3.47560363       1.25839728
 H      -0.11655054      -4.56055833       1.12962575
 H      -1.22225742      -3.17013777       1.03808849
 C       1.40644354      -0.84887802       1.68315504
 H       1.47202179      -1.16711846       2.73921232
 H       0.39683201      -0.43881332       1.59668006
 H       2.10594598       0.02810641       1.54661904
 H       0.04302028      -3.25693967       2.28634595
27
step 136
 C       1.67789815      -1.93879788       0.68701073
 N       2.73007866      -1.96229368      -0.07206860
 N       0.79768042      -3.02091877       0.39171327
 C       1.47747878      -3.82957086      -0.55218794
 O       1.07854779      -4.94209197      -0.84364268
 C       2.65287793      -3.07467054      -0.91047761
 C       3.62736650      -3.50499125      -1.79343092
 H       3.30734926      -4.33511103      -2.42262856
 C       4.85064265      -2.92921266      -2.13503512
 C       5.24038092      -1.66800653      -1.64828305
 H       4.72703001      -1.14574779      -0.87800497
 C       5.66613206      -3.50325854      -3.13730612
 H       5.31891677      -4.49467164      -3.52113963
 C       6.27362565      -0.99612998      -2.22235121
 H       6.50903340      -0.02235166      -1.87605851
 C       6.69983343      -2.82841823      -3.75392665
 H       7.33071744      -3.24406852      -4.55324380
 C       7.09521671      -1.49554600      -3.30514989
 O       8.10059552      -0.90790132      -3.74390381
 C      -0.18332104      -3.47763347       1.25505611
 H      -0.12406654      -4.56239454       1.12688850
 H      -1.22115584      -3.16673039       1.03947085
 C       1.40765224      -0.84755791       1.68363861
 H       1.48317931      -1.15713975       2.74915994
 H       0.39429647      -0.43343770       1.58765369
 H       2.10972069       0.03002322       1.54070310
 H       0.04428395      -3.25260482       2.27907095
27
step 137
 C       1.67885354      -1.94023841       0.68701845
 N       2.72938756      -1.96332745      -0.07214903
 N       0.79928707      -3.02011130       0.39550728
 C       1.47537100      -3.82790752      -0.55140283
 O       1.07940154      -4.94333955      -0.84449036
 C       2.65183251      -3.07545963      -0.91102320
 C       3.62588384      -3.50335259      -1.79375722
 H       3.31017153      -4.33433322      -2.42610239
 C       4.85023804      -2.93001182      -2.13469519
 C       5.24240155      -1.66918170      -1.64697872
 H       4.72546030      -1.14090285      -0.87094908
 C       5.66475100      -3.50325229      -3.13466818
 H       5.31935992      -4.49692407      -3.51502258
 C       6.27134982      -0.99675577      -2.22307959
 H       6.50158592      -0.01598202      -1.87419400
 C       6.69975396      -2.82685494      -3.75379958
 H       7.32489127      -3.24351756      -4.55472748
 C       7.09511940      -1.49489762      -3.30633234
 O       8.10083202      -0.90822255      -3.74588318
 C      -0.18075610      -3.48000057       1.25182015
 H      -0.13268225      -4.56503110       1.12470966
 H      -1.21916907      -3.16286856       1.04046627
 C       1.40888882      -0.84606288       1.68419653
 H       1.49473532      -1.14744726       2.75761344
 H       0.39194476      -0.42854138       1.57816387
 H       2.11218196       0.02916525       1.53479271
 H       0.04578031      -3.24763961       2.27347093
27
step 138
 C       1.67978063      -1.94173125       0.68695394
 N       2.72864876      -1.96433774      -0.07220241
 N       0.80134318      -3.01889390       0.39911737
 C       1.47320383      -3.82617330      -0.55053060
 O       1.08022847      -4.94465096      -0.84539091
 C       2.65082715      -3.07625935      -0.91150023
 C       3.62426178      -3.50177916      -1.79412787
 H       3.31321421      -4.33422003      -2.42889620
 C       4.84980529      -2.93075892      -2.13431512
 C       5.24455013      -1.67022680      -1.64574107
 H       4.72271187      -1.13636145      -0.86292847
 C       5.66342566      -3.50334673      -3.13235019
 H       5.32106403      -4.49756703      -3.50836653
 C       6.26913321      -0.99738005      -2.22387285
 H       6.49472909      -0.00798290      -1.87163561
 C       6.69963094      -2.82534165      -3.75359115
 H       7.31801175      -3.24323995      -4.55543869
 C       7.09505669      -1.49438362      -3.30745773
 O       8.10100427      -0.90853815      -3.74786685
 C      -0.17852946      -3.48269181       1.24871094
 H      -0.14227092      -4.56843644       1.12307719
 H      -1.21624864      -3.15858276       1.04102466
 C       1.41014149      -0.84439175       1.68483536
 H       1.50648883      -1.13797787       2.76414228
 H       0.39015692      -0.42431339       1.56841507
 H       2.11332213       0.02557951       1.52888596
 H       0.04751495      -3.24215158       2.26969123
27
step 139
 C       1.68067324      -1.94325739       0.68684649
 N       2.72787372      -1.96532208      -0.07223592
 N       0.80385050      -3.01729255       0.40251703
 C       1.47098149      -3.82439763      -0.54958596
 O       1.08103037      -4.94600233      -0.84633503
 C       2.64985390      -3.07706371      -0.91190269
 C       3.62250803      -3.50028485      -1.79455387
 H       3.31643782      -4.33470186      -2.43094427
 C       4.84934099      -2.93144251      -2.13387966
 C       5.24677688      -1.67111837      -1.64451893
 H       4.71919153      -1.13253473      -0.85454434
 C       5.66217911      -3.50353034      -3.13036277
 H       5.32398995      -4.49668757      -3.50125776
 C       6.26700278      -0.99794060      -2.22471812
 H       6.48836870       0.00101403      -1.86863761
 C       6.69943793      -2.82388937      -3.75328523
 H       7.31022513      -3.24328852      -4.55549592
 C       7.09502796      -1.49399952      -3.30852440
 O       8.10110969      -0.90884706      -3.74985251
 C      -0.17666689      -3.48569039       1.24575845
 H      -0.15269125      -4.57253237       1.12197646
 H      -1.21239674      -3.15389542       1.04109631
 C       1.41139459      -0.84255485       1.68555399
 H       1.51824042      -1.12870276       2.76843490
 H       0.38925219      -0.42091289       1.55861170
 H       2.11324181       0.01945812       1.52295839
 H       0.04945573      -3.23628977       2.26771672
27
step 140
 C       1.68152654      -1.94479618       0.68672569
 N       2.72707468      -1.96627770      -0.07225728
 N       0.80680238      -3.01533957       0.40568529
 C       1.46870995      -3.82261039      -0.54858490
 O       1.08180893      -4.94736902      -0.84731301
 C       2.64890455      -3.07786726      -0.91222492
 C       3.62063212      -3.49888236      -1.79504523
 H       3.31979983      -4.33571146      -2.43219013
 C       4.84884252      -2.93205203      -2.13337534
 C       5.24903186      -1.67183613      -1.64326301
 H       4.71530238      -1.12980672      -0.84637811
 C       5.66103416      -3.50378233      -3.12870919
 H       5.32805404      -4.49449117      -3.49382580
 C       6.26498536      -0.99837109      -2.22560037
 H       6.48240531       0.01032420      -1.86547406
 C       6.69914791      -2.82250662      -3.75286362
 H       7.30171576      -3.24373292      -4.55506399
 C       7.09503251      -1.49373982      -3.30953080
 O       8.10114609      -0.90914831      -3.75183804
 C      -0.17518239      -3.48897572       1.24299980
 H      -0.16378974      -4.57719764       1.12139015
 H      -1.20766443      -3.14882121       1.04063380
 C       1.41262967      -0.84057408       1.68634352
 H       1.52979925      -1.11962762       2.77031076
 H       0.38947082      -0.41846073       1.54895138
 H       2.11214836       0.01113350       1.51696074
 H       0.05153515      -3.23024309       2.26737959
27
step 141
 C       1.68233730      -1.94632564       0.68662096
 N       2.72626460      -1.96720144      -0.07227454
 N       0.81018339      -3.01307333       0.40860704
 C       1.46639716      -3.82084105      -0.54754440
 O       1.08256548      -4.94872644      -0.84831491
 C       2.64797075      -3.07866504      -0.91246169
 C       3.61864550      -3.49758280      -1.79561067
 H       3.32325361      -4.33718942      -2.43259121
 C       4.84830827      -2.93257793      -2.13279084
 C       5.25126792      -1.67236525      -1.64192987
 H       4.71141353      -1.12850313      -0.83894628
 C       5.66001283      -3.50407320      -3.12738560
 H       5.33313195      -4.49129436      -3.48623874
 C       6.26310608      -0.99860703      -2.22650432
 H       6.47674859       0.01927802      -1.86241424
 C       6.69873441      -2.82119971      -3.75230726
 H       7.29269404      -3.24465323      -4.55434034
 C       7.09506963      -1.49359801      -3.31047550
 O       8.10111140      -0.90944124      -3.75382138
 C      -0.17407862      -3.49252337       1.24047660
 H      -0.17540336      -4.58227669       1.12129736
 H      -1.20214825      -3.14336767       1.03959357
 C       1.41382624      -0.83848270       1.68718753
 H       1.54098951      -1.11079153       2.76972752
 H       0.39096133      -0.41703338       1.53961880
 H       2.11035200       0.00107022       1.51081700
 H       0.05365703      -3.22423338       2.26838675
27
step 142
 C       1.68310434      -1.94782267       0.68656099
 N       2.72545689      -1.96808972      -0.07229597
 N       0.81396938      -3.01053791       0.41127320
 C       1.46405317      -3.81911798      -0.54648211
 O       1.08330088      -4.95005057      -0.84933079
 C       2.64704418      -3.07945264      -0.91260836
 C       3.61656123      -3.49639537      -1.79625717
 H       3.32674862      -4.33908744      -2.43212171
 C       4.84773780      -2.93301177      -2.13211709
 C       5.25344276      -1.67269777      -1.64048458
 H       4.70783951      -1.12887114      -0.83267061
 C       5.65913568      -3.50436585      -3.12638140
 H       5.33906477      -4.48751079      -3.47869608
 C       6.26138715      -0.99859063      -2.22741586
 H       6.47132740       0.02727496      -1.85970306
 C       6.69817282      -2.81997327      -3.75159770
 H       7.28338283      -3.24613211      -4.55353871
 C       7.09513841      -1.49356671      -3.31135708
 O       8.10100380      -0.90972537      -3.75580066
 C      -0.17334793      -3.49630525       1.23823160
 H      -0.18736276      -4.58759053       1.12167243
 H      -1.19598377      -3.13753677       1.03793746
 C       1.41496259      -0.83632426       1.68806254
 H       1.55165644      -1.10226467       2.76678351
 H       0.39377367      -0.41665949       1.53078035
 H       2.10825591      -0.01015109       1.50442416
 H       0.05570562      -3.21850441       2.27035900
27
step 143
 C       1.68382876      -1.94926337       0.68657328
 N       2.72466522      -1.96893860      -0.07232982
 N       0.81812776      -3.00778249       0.41368060
 C       1.46169014      -3.81746783      -0.54541613
 O       1.08401546      -4.95131843      -0.85035082
 C       2.64611685      -3.08022626      -0.91266107
 C       3.61439380      -3.49532711      -1.79698972
 H       3.33023084      -4.34137067      -2.43077456
 C       4.84713185      -2.93334636      -2.13134745
 C       5.25552045      -1.67283310      -1.63890243
 H       4.70482744      -1.13106852      -0.82786050
 C       5.65842088      -3.50461760      -3.12567998
 H       5.34566803      -4.48362812      -3.47141839
 C       6.25984701      -0.99827414      -2.22832299
 H       6.46609551       0.03382082      -1.85754735
 C       6.69744182      -2.81883095      -3.75071883
 H       7.27400197      -3.24824507      -4.55286927
 C       7.09523761      -1.49363774      -3.31217406
 O       8.10082171      -0.91000049      -3.75777415
 C      -0.17297379      -3.50028989       1.23630521
 H      -0.19949609      -4.59294940       1.12248377
 H      -1.18933677      -3.13132718       1.03563423
 C       1.41601711      -0.83415053       1.68893848
 H       1.56167184      -1.09414499       2.76171616
 H       0.39785673      -0.41731833       1.52257943
 H       2.10633663      -0.02186159       1.49765473
 H       0.05755582      -3.21330852       2.27287500
27
step 144
 C       1.68451419      -1.95062329       0.68668365
 N       2.72390329      -1.96974375      -0.07238418
 N       0.82261806      -3.00486077       0.41583163
 C       1.45932230      -3.81591500      -0.54436463
 O       1.08470888      -4.95250854      -0.85136548
 C       2.64518124      -3.08098263      -0.91261681
 C       3.61215879      -3.49438282      -1.79781107
 H       3.33364375      -4.34401869      -2.42856211
 C       4.84649236      -2.93357595      -2.13047781
 C       5.25747245      -1.67277813      -1.63716981
 H       4.70254939      -1.13515896      -0.82470388
 C       5.65788317      -3.50478298      -3.12525978
 H       5.35274397      -4.48017379      -3.46463338
 C       6.25849979      -0.99762213      -2.22921635
 H       6.46103395       0.03855090      -1.85610720
 C       6.69652482      -2.81777616      -3.74965874
 H       7.26475250      -3.25104989      -4.55251738
 C       7.09536558      -1.49380223      -3.31292488
 O       8.10056385      -0.91026659      -3.75974028
 C      -0.17293274      -3.50444284       1.23473239
 H      -0.21163299      -4.59816601       1.12369272
 H      -1.18239221      -3.12473745       1.03266101
 C       1.41697046      -0.83201811       1.68977910
 H       1.57093896      -1.08655387       2.75489560
 H       0.40306001      -0.41894000       1.51513256
 H       2.10511068      -0.03334799       1.49036404
 H       0.05908277      -3.20889271       2.27551290
27
step 145
 C       1.68516696      -1.95187774       0.68691582
 N       2.72318459      -1.97050053      -0.07246683
 N       0.82739278      -3.00183008       0.41773376
 C       1.45696582      -3.81448119      -0.54334558
 O       1.08538012      -4.95360128      -0.85236569
 C       2.64423061      -3.08171906      -0.91247359
 C       3.60987252      -3.49356503      -1.79872166
 H       3.33692976      -4.34702518      -2.42551565
 C       4.84582235      -2.93369632      -2.12950659
 C       5.25927834      -1.67254686      -1.63528480
 H       4.70109790      -1.14111157      -0.82326294
 C       5.65753264      -3.50481760      -3.12509585
 H       5.36009682      -4.47766906      -3.45855857
 C       6.25735497      -0.99661273      -2.23008947
 H       6.45615137       0.04124279      -1.85549097
 C       6.69541122      -2.81681288      -3.74841146
 H       7.25580237      -3.25457614      -4.55262316
 C       7.09552016      -1.49405072      -3.31360784
 O       8.10022921      -0.91052385      -3.76169772
 C      -0.17319634      -3.50872698       1.23354025
 H      -0.22360883      -4.60306801       1.12525272
 H      -1.17534135      -3.11776998       1.02900486
 C       1.41780879      -0.82998360       1.69054229
 H       1.57939639      -1.07963029       2.74681150
 H       0.40913936      -0.42140740       1.50852643
 H       2.10508565      -0.04391306       1.48240379
 H       0.06017018      -3.20548571       2.27788537
27
step 146
 C       1.68579609      -1.95300209       0.68729098
 N       2.72252219      -1.97120400      -0.07258507
 N       0.83239845      -2.99875049       0.41939891
 C       1.45463855      -3.81318505      -0.54237644
 O       1.08602747      -4.95457921      -0.85334291
 C       2.64325915      -3.08243342      -0.91223053
 C       3.60755173      -3.49287413      -1.79971966
 H       3.34003187      -4.35039625      -2.42168383
 C       4.84512578      -2.93370506      -2.12843476
 C       5.26092642      -1.67215985      -1.63325726
 H       4.70048346      -1.14880272      -0.82347307
 C       5.65737344      -3.50468277      -3.12516149
 H       5.36754974      -4.47657441      -3.45338187
 C       6.25641721      -0.99523837      -2.23093882
 H       6.45148306       0.04182224      -1.85575265
 C       6.69409735      -2.81594626      -3.74697831
 H       7.24727565      -3.25881656      -4.55326502
 C       7.09569867      -1.49437323      -3.31422106
 O       8.09981709      -0.91077269      -3.76364530
 C      -0.17373340      -3.51310281       1.23274648
 H      -0.23526876      -4.60750921       1.12710881
 H      -1.16836786      -3.11043572       1.02466441
 C       1.41852783      -0.82809781       1.69118057
 H       1.58702006      -1.07352309       2.73805062
 H       0.41576767      -0.42456024       1.50281630
 H       2.10669818      -0.05294808       1.47364217
 H       0.06071675      -3.20328711       2.27966638
27
step 147
 C       1.68641322      -1.95397218       0.68782746
 N       2.72192848      -1.97184902      -0.07274556
 N       0.83757688      -2.99568377       0.42084281
 C       1.45235981      -3.81204193      -0.54147386
 O       1.08664852      -4.95542727      -0.85428930
 C       2.64226222      -3.08312405      -0.91188799
 C       3.60521321      -3.49230857      -1.80080103
 H       3.34289561      -4.35414750      -2.41712995
 C       4.84440740      -2.93360160      -2.12726576
 C       5.26241399      -1.67164365      -1.63110885
 H       4.70063345      -1.15802012      -0.82514417
 C       5.65740256      -3.50435027      -3.12543007
 H       5.37496077      -4.47723295      -3.44924282
 C       6.25568638      -0.99350601      -2.23176386
 H       6.44708947       0.04036486      -1.85689079
 C       6.69258697      -2.81518298      -3.74536876
 H       7.23924693      -3.26372173      -4.55444970
 C       7.09589788      -1.49475932      -3.31476253
 O       8.09932706      -0.91101374      -3.76558204
 C      -0.17451202      -3.51752874       1.23235833
 H      -0.24647150      -4.61137862       1.12919749
 H      -1.16163411      -3.10275925       1.01965160
 C       1.41913696      -0.82640003       1.69164192
 H       1.59382240      -1.06838092       2.72926206
 H       0.42255142      -0.42820171       1.49802618
 H       2.11024846      -0.06000547       1.46398861
 H       0.06064096      -3.20245876       2.28060990
27
step 148
 C       1.68703238      -1.95476472       0.68854037
 N       2.72141499      -1.97243029      -0.07295422
 N       0.84286650      -2.99269231       0.42208428
 C       1.45015000      -3.81106369      -0.54065333
 O       1.08724020      -4.95613298      -0.85519778
 C       2.64123655      -3.08378976      -0.91144766
 C       3.60287342      -3.49186520      -1.80195976
 H       3.34547114      -4.35830002      -2.41192843
 C       4.84367249      -2.93338743      -2.12600543
 C       5.26374748      -1.67102987      -1.62887253
 H       4.70139353      -1.16846941      -0.82796541
 C       5.65760912      -3.50380644      -3.12587647
 H       5.38223469      -4.47982252      -3.44621781
 C       6.25515760      -0.99143708      -2.23256691
 H       6.44305423       0.03709424      -1.85884858
 C       6.69089121      -2.81453131      -3.74360049
 H       7.23174164      -3.26919910      -4.55611077
 C       7.09611399      -1.49519827      -3.31523008
 O       8.09875898      -0.91124781      -3.76750717
 C      -0.17550152      -3.52196140       1.23237230
 H      -0.25709249      -4.61460704       1.13144686
 H      -1.15526903      -3.09478366       1.01399344
 C       1.41966224      -0.82491359       1.69187166
 H       1.59984747      -1.06433974       2.72110902
 H       0.42905427      -0.43210824       1.49415148
 H       2.11584603      -0.06485412       1.45341815
 H       0.05988434      -3.20311842       2.28056206
27
step 149
 C       1.68766960      -1.95535783       0.68944136
 N       2.72099210      -1.97294248      -0.07321611
 N       0.84820380      -2.98983789       0.42314457
 C       1.44803031      -3.81025863      -0.53992896
 O       1.08779883      -4.95668654      -0.85606214
 C       2.64018038      -3.08442976      -0.91091255
 C       3.60054814      -3.49153964      -1.80318810
 H       3.34771523      -4.36287547      -2.40616070
 C       4.84292668      -2.93306610      -2.12466182
 C       5.26494201      -1.67035410      -1.62659160
 H       4.70253292      -1.17978485      -0.83151586
 C       5.65797421      -3.50305462      -3.12647801
 H       5.38932781      -4.48432724      -3.44431277
 C       6.25482152      -0.98906696      -2.23335313
 H       6.43948170       0.03237597      -1.86151542
 C       6.68902804      -2.81400068      -3.74169865
 H       7.22474219      -3.27511693      -4.55811590
 C       7.09634270      -1.49567913      -3.31562144
 O       8.09811298      -0.91147592      -3.76942009
 C      -0.17667400      -3.52635600       1.23277403
 H      -0.26702641      -4.61717098       1.13377710
 H      -1.14935917      -3.08657454       1.00773348
 C       1.42014675      -0.82364418       1.69181558
 H       1.60516150      -1.06150864       2.71420862
 H       0.43482822      -0.43604298       1.49116448
 H       2.12338284      -0.06750165       1.44198887
 H       0.05841362      -3.20533543       2.27946815
27
step 150
 C       1.68834244      -1.95573163       0.69053833
 N       2.72066890      -1.97338027      -0.07353530
 N       0.85352478      -2.98718060       0.42404681
 C       1.44602225      -3.80963145      -0.53931315
 O       1.08832016      -4.95708090      -0.85687708
 C       2.63909364      -3.08504357      -0.91028712
 C       3.59825220      -3.49132678      -1.80447694
 H       3.34959322      -4.36789084      -2.39991087
 C       4.84217572      -2.93264329      -2.12324506
 C       5.26602047      -1.66965439      -1.62431787
 H       4.70375643      -1.19154582      -0.83528433
 C       5.65847150      -3.50211542      -3.12721468
 H       5.39624446      -4.49053593      -3.44346499
 C       6.25466471      -0.98644386      -2.23413022
 H       6.43649357       0.02670509      -1.86473078
 C       6.68702124      -2.81360097      -3.73969459
 H       7.21819841      -3.28131242      -4.56028137
 C       7.09657921      -1.49619087      -3.31593436
 O       8.09738942      -0.91169925      -3.77132037
 C      -0.17800547      -3.53066698       1.23353861
 H      -0.27618887      -4.61909363       1.13610117
 H      -1.14394422      -3.07822231       1.00093278
 C       1.42064787      -0.82258116       1.69142436
 H       1.60983957      -1.05995533       2.70906581
 H       0.43945158      -0.43977236       1.48902268
 H       2.13254205      -0.06817685       1.42984702
 H       0.05622195      -3.20912812       2.27737584
27
step 151
 C       1.68906932      -1.95586892       0.69183529
 N       2.72045296      -1.97373852      -0.07391485
 N       0.85876635      -2.98477757       0.42481548
 C       1.44414731      -3.80918332      -0.53881632
 O       1.08879950      -4.95731175      -0.85763829
 C       2.63797797      -3.08563097      -0.90957720
 C       3.59599921      -3.49122120      -1.80581607
 H       3.35108062      -4.37335302      -2.39326153
 C       4.84142524      -2.93212671      -2.12176713
 C       5.26701156      -1.66896910      -1.62210867
 H       4.70472594      -1.20330103      -0.83870237
 C       5.65906846      -3.50102469      -3.12806869
 H       5.40302625      -4.49806783      -3.44355351
 C       6.25467027      -0.98362680      -2.23490798
 H       6.43422404       0.02068360      -1.86829166
 C       6.68489914      -2.81334153      -3.73762395
 H       7.21204053      -3.28760289      -4.56239165
 C       7.09681834      -1.49672252      -3.31616662
 O       8.09658889      -0.91191916      -3.77320773
 C      -0.17947644      -3.53484876       1.23463098
 H      -0.28451714      -4.62044282       1.13832579
 H      -1.13901757      -3.06984227       0.99367018
 C       1.42123154      -0.82170141       1.69065854
 H       1.61395039      -1.05969362       2.70601235
 H       0.44257087      -0.44308481       1.48767922
 H       2.14284013      -0.06727834       1.41721805
 H       0.05332925      -3.21446298       2.27443482
27
step 152
 C       1.68986882      -1.95575595       0.69333214
 N       2.72035018      -1.97401228      -0.07435668
 N       0.86386773      -2.98268190       0.42547601
 C       1.44242654      -3.80891199      -0.53844673
 O       1.08923173      -4.95737752      -0.85834250
 C       2.63683686      -3.08619190      -0.90879002
 C       3.59380136      -3.49121765      -1.80719456
 H       3.35216427      -4.37925408      -2.38629010
 C       4.84068060      -2.93152602      -2.12024157
 C       5.26794696      -1.66833423      -1.62002259
 H       4.70509334      -1.21460081      -0.84119237
 C       5.65972812      -3.49982964      -3.12902360
 H       5.40973681      -4.50641923      -3.44441562
 C       6.25481870      -0.98068247      -2.23569743
 H       6.43281284       0.01498412      -1.87196510
 C       6.68269331      -2.81323013      -3.73552462
 H       7.20619269      -3.29379841      -4.56422074
 C       7.09705458      -1.49726335      -3.31631620
 O       8.09571222      -0.91213716      -3.77508202
 C      -0.18107193      -3.53885680       1.23600667
 H      -0.29196997      -4.62132588       1.14035276
 H      -1.13453202      -3.06157194       0.98604144
 C       1.42196475      -0.82097420       1.68949294
 H       1.61754272      -1.06067570       2.70516386
 H       0.44394158      -0.44580914       1.48709367
 H       2.15368937      -0.06530553       1.40438632
 H       0.04978156      -3.22125587       2.27089266
27
step 153
 C       1.69075897      -1.95538316       0.69502454
 N       2.72036468      -1.97419696      -0.07486162
 N       0.86877164      -2.98094155       0.42605448
 C       1.44088016      -3.80881198      -0.53821026
 O       1.08961147      -4.95727930      -0.85898747
 C       2.63567560      -3.08672638      -0.90793409
 C       3.59166926      -3.49131140      -1.80860102
 H       3.35284306      -4.38556741      -2.37906604
 C       4.83994664      -2.93085262      -2.11868321
 C       5.26885744      -1.66778020      -1.61811405
 H       4.70454416      -1.22503549      -0.84222936
 C       5.66041083      -3.49858423      -3.13006322
 H       5.41644571      -4.51502021      -3.44586562
 C       6.25508896      -0.97768057      -2.23650952
 H       6.43239572       0.01029709      -1.87550689
 C       6.68043714      -2.81327196      -3.73343476
 H       7.20058521      -3.29971439      -4.56555297
 C       7.09728220      -1.49780296      -3.31638133
 O       8.09476039      -0.91235485      -3.77694321
 C      -0.18278110      -3.54264878       1.23761296
 H      -0.29852637      -4.62188139       1.14208059
 H      -1.13040956      -3.05356590       0.97815737
 C       1.42290798      -0.82036588       1.68791925
 H       1.62063681      -1.06279131       2.70640576
 H       0.44346077      -0.44782958       1.48724092
 H       2.16446496      -0.06278887       1.39166908
 H       0.04564911      -3.22937557       2.26708554
27
step 154
 C       1.69175647      -1.95474596       0.69690378
 N       2.72049869      -1.97428838      -0.07542934
 N       0.87342550      -2.97959839       0.42657739
 C       1.43952717      -3.80887476      -0.53811023
 O       1.08993309      -4.95702073      -0.85957205
 C       2.63450129      -3.08723442      -0.90701916
 C       3.58961196      -3.49149855      -1.81002382
 H       3.35312798      -4.39224556      -2.37164923
 C       4.83922754      -2.93011937      -2.11710782
 C       5.26976856      -1.66732874      -1.61642735
 H       4.70284648      -1.23427451      -0.84140863
 C       5.66107603      -3.49734440      -3.13117070
 H       5.42321425      -4.52329114      -3.44771265
 C       6.25545977      -0.97468792      -2.23735332
 H       6.43309239       0.00726262      -1.87868584
 C       6.67816463      -2.81346874      -3.73139086
 H       7.19516487      -3.30518299      -4.56620114
 C       7.09749533      -1.49833149      -3.31636067
 O       8.09373462      -0.91257395      -3.77879137
 C      -0.18459629      -3.54618594       1.23939048
 H      -0.30418353      -4.62226799       1.14340666
 H      -1.12655392      -3.04598845       0.97014093
 C       1.42410889      -0.81984334       1.68594626
 H       1.62322305      -1.06587449       2.70941182
 H       0.44118488      -0.44909480       1.48811596
 H       2.17456381      -0.06023225       1.37939029
 H       0.04102263      -3.23865042       2.26342202
27
step 155
 C       1.69287603      -1.95384542       0.69895674
 N       2.72075251      -1.97428288      -0.07605840
 N       0.87778233      -2.97868735       0.42707147
 C       1.43838502      -3.80908906      -0.53814732
 O       1.09019087      -4.95660789      -0.86009617
 C       2.63332275      -3.08771593      -0.90605605
 C       3.58763687      -3.49177612      -1.81145119
 H       3.35304155      -4.39921976      -2.36408955
 C       4.83852668      -2.92934034      -2.11553183
 C       5.27069673      -1.66699036      -1.61499147
 H       4.69989532      -1.24209812      -0.83850588
 C       5.66168372      -3.49616394      -3.13232790
 H       5.43008496      -4.53069116      -3.44977550
 C       6.25591110      -0.97176198      -2.23823400
 H       6.43499295       0.00639419      -1.88131128
 C       6.67590923      -2.81381811      -3.72942614
 H       7.18990245      -3.31006257      -4.56602102
 C       7.09768808      -1.49883976      -3.31625333
 O       8.09263630      -0.91279620      -3.78062668
 C      -0.18651193      -3.54943430       1.24127560
 H      -0.30895392      -4.62265082       1.14422976
 H      -1.12286432      -3.03900486       0.96212334
 C       1.42559828      -0.81937622       1.68359794
 H       1.62526772      -1.06971669       2.71369065
 H       0.43732822      -0.44961895       1.48973330
 H       2.18344900      -0.05807198       1.36785818
 H       0.03600759      -3.24887844       2.26035807
27
step 156
 C       1.69412980      -1.95268884       0.70116584
 N       2.72112452      -1.97417733      -0.07674631
 N       0.88180156      -2.97823576       0.42756352
 C       1.43746930      -3.80944115      -0.53831953
 O       1.09037905      -4.95604911      -0.86056080
 C       2.63215040      -3.08817062      -0.90505652
 C       3.58574991      -3.49214207      -1.81287134
 H       3.35261667      -4.40640158      -2.35642779
 C       4.83784658      -2.92853043      -2.11397192
 C       5.27164657      -1.66676322      -1.61381671
 H       4.69574073      -1.24841380      -0.83351412
 C       5.66219570      -3.49509127      -3.13351503
 H       5.43707498      -4.53675544      -3.45189357
 C       6.25642546      -0.96894469      -2.23915098
 H       6.43814484       0.00800767      -1.88325865
 C       6.67370289      -2.81431321      -3.72756924
 H       7.18479776      -3.31424497      -4.56492180
 C       7.09785457      -1.49931936      -3.31605903
 O       8.09146700      -0.91302333      -3.78244937
 C      -0.18852310      -3.55236569       1.24320357
 H      -0.31286181      -4.62318647       1.14445321
 H      -1.11924886      -3.03277206       0.95423967
 C       1.42738845      -0.81893807       1.68091011
 H       1.62672365      -1.07408372       2.71864832
 H       0.43224207      -0.44947492       1.49212106
 H       2.19067921      -0.05665175       1.35734796
 H       0.03071609      -3.25984099       2.25836200
27
step 157
 C       1.69552693      -1.95129014       0.70350915
 N       2.72161123      -1.97396927      -0.07748958
 N       0.88544955      -2.97826292       0.42808030
 C       1.43679344      -3.80991522      -0.53862214
 O       1.09049191      -4.95535477      -0.86096792
 C       2.63099614      -3.08859795      -0.90403308
 C       3.58395562      -3.49259513      -1.81427241
 H       3.35189501      -4.41368637      -2.34869746
 C       4.83718881      -2.92770502      -2.11244473
 C       5.27261048      -1.66663359      -1.61289435
 H       4.69059076      -1.25325290      -0.82664666
 C       5.66257658      -3.49416706      -3.13471072
 H       5.44417281      -4.54112120      -3.45393428
 C       6.25698901      -0.96625829      -2.24009659
 H       6.44254298       0.01217255      -1.88448703
 C       6.67157517      -2.81494264      -3.72584321
 H       7.17988227      -3.31766046      -4.56287260
 C       7.09798907      -1.49976282      -3.31577812
 O       8.09022853      -0.91325705      -3.78425976
 C      -0.19062408      -3.55495852       1.24511236
 H      -0.31593957      -4.62400761       1.14398828
 H      -1.11563639      -3.02742957       0.94662412
 C       1.42947372      -0.81850704       1.67792680
 H       1.62754261      -1.07873349       2.72365431
 H       0.42637849      -0.44878147       1.49531152
 H       2.19592629      -0.05620937       1.34808967
 H       0.02525685      -3.27131922       2.25787019
27
step 158
 C       1.69707330      -1.94967004       0.70596047
 N       2.72220734      -1.97365689      -0.07828384
 N       0.88870001      -2.97877986       0.42864838
 C       1.43636845      -3.81049377      -0.53904777
 O       1.09052392      -4.95453710      -0.86132052
 C       2.62987314      -3.08899702      -0.90299877
 C       3.58225734      -3.49313454      -1.81564241
 H       3.35092494      -4.42095832      -2.34092750
 C       4.83655401      -2.92687960      -2.11096659
 C       5.27357030      -1.66657796      -1.61219917
 H       4.68478821      -1.25674927      -0.81830524
 C       5.66279460      -3.49342253      -3.13589218
 H       5.45133757      -4.54354430      -3.45579768
 C       6.25759208      -0.96370412      -2.24105601
 H       6.44812576       0.01869898      -1.88504366
 C       6.66955250      -2.81569050      -3.72426479
 H       7.17521961      -3.32028055      -4.55990529
 C       7.09808596      -1.50016370      -3.31541164
 O       8.08892287      -0.91349894      -3.78605822
 C      -0.19280695      -3.55719818       1.24694705
 H      -0.31822409      -4.62520900       1.14275786
 H      -1.11198614      -3.02309135       0.93940519
 C       1.43183239      -0.81806624       1.67469687
 H       1.62768681      -1.08343194       2.72810000
 H       0.42024573      -0.44768719       1.49933026
 H       2.19898428      -0.05687122       1.34025989
 H       0.01972424      -3.28311128       2.25923744
27
step 159
 C       1.69877139      -1.94785601       0.70848964
 N       2.72290594      -1.97323908      -0.07912393
 N       0.89153409      -2.97978934       0.42929389
 C       1.43620275      -3.81115802      -0.53958652
 O       1.09046976      -4.95360985      -0.86162248
 C       2.62879567      -3.08936652      -0.90196698
 C       3.58065742      -3.49375966      -1.81696919
 H       3.34975928      -4.42809669      -2.33314519
 C       4.83594199      -2.92606939      -2.10955320
 C       5.27450068      -1.66656597      -1.61169418
 H       4.67876783      -1.25910655      -0.80902298
 C       5.66282231      -3.49287840      -3.13703562
 H       5.45849999      -4.54390878      -3.45741911
 C       6.25822907      -0.96126470      -2.24200811
 H       6.45477796       0.02716434      -1.88505407
 C       6.66765761      -2.81653686      -3.72284405
 H       7.17090403      -3.32211852      -4.55611352
 C       7.09813981      -1.50051670      -3.31496134
 O       8.08755227      -0.91375041      -3.78784518
 C      -0.19506031      -3.55907727       1.24866392
 H      -0.31975374      -4.62683663       1.14069988
 H      -1.10829477      -3.01983909       0.93270111
 C       1.43442942      -0.81760424       1.67127148
 H       1.62713781      -1.08796605       2.73144469
 H       0.41436268      -0.44635389       1.50418622
 H       2.19977379      -0.05865055       1.33397628
 H       0.01418822      -3.29504763       2.26268900
27
step 160
 C       1.70062039      -1.94588189       0.71106292
 N       2.72369864      -1.97271544      -0.08000407
 N       0.89394034      -2.98128608       0.43004233
 C       1.43630196      -3.81188843      -0.54022608
 O       1.09032445      -4.95258804      -0.86187848
 C       2.62777886      -3.08970470      -0.90095119
 C       3.57915742      -3.49446959      -1.81824028
 H       3.34845297      -4.43498252      -2.32537925
 C       4.83535175      -2.92528898      -2.10821943
 C       5.27537312      -1.66656373      -1.61133628
 H       4.67300548      -1.26056285      -0.79939732
 C       5.66263719      -3.49254415      -3.13811672
 H       5.46556444      -4.54223128      -3.45877047
 C       6.25889787      -0.95890854      -2.24292744
 H       6.46233999       0.03697201      -1.88470086
 C       6.66590906      -2.81745829      -3.72158426
 H       7.16705695      -3.32322760      -4.55164811
 C       7.09814533      -1.50081767      -3.31442964
 O       8.08611919      -0.91401269      -3.78962109
 C      -0.19736851      -3.56059556       1.25023375
 H      -0.32056623      -4.62888132       1.13777041
 H      -1.10460057      -3.01771728       0.92661569
 C       1.43721921      -0.81711545       1.66770227
 H       1.62590228      -1.09215327       2.73324771
 H       0.40921772      -0.44494175       1.50986413
 H       2.19834330      -0.06144782       1.32929397
 H       0.00868714      -3.30700126       2.26828365
27
step 161
 C       1.70261634      -1.94378728       0.71364344
 N       2.72457586      -1.97208629      -0.08091800
 N       0.89591447      -2.98325717       0.43091827
 C       1.43666881      -3.81266513      -0.54095198
 O       1.09008344      -4.95148763      -0.86209397
 C       2.62683842      -3.09000930      -0.89996479
 C       3.57775839      -3.49526271      -1.81944293
 H       3.34706076      -4.44150546      -2.31766255
 C       4.83478164      -2.92455203      -2.10697913
 C       5.27615982      -1.66653675      -1.61108148
 H       4.66796989      -1.26135950      -0.79002691
 C       5.66222214      -3.49241765      -3.13911111
 H       5.47241167      -4.53866121      -3.45986060
 C       6.25959881      -0.95659626      -2.24378645
 H       6.47062124       0.04742651      -1.88419682
 C       6.66432098      -2.81842876      -3.72048225
 H       7.16382135      -3.32369668      -4.54670843
 C       7.09809741      -1.50106373      -3.31381964
 O       8.08462629      -0.91428675      -3.79138643
 C      -0.19971130      -3.56176005       1.25164350
 H      -0.32069756      -4.63127795       1.13394576
 H      -1.10098480      -3.01673033       0.92123477
 C       1.44014810      -0.81660058       1.66404012
 H       1.62401495      -1.09584809       2.73318877
 H       0.40523556      -0.44359734       1.51632000
 H       2.19486849      -0.06505228       1.32620345
 H       0.00322537      -3.31889064       2.27589636
27
step 162
 C       1.70475249      -1.94161667       0.71619182
 N       2.72552701      -1.97135264      -0.08185914
 N       0.89745897      -2.98568270       0.43194496
 C       1.43730301      -3.81346847      -0.54174782
 O       1.08974266      -4.95032515      -0.86227498
 C       2.62599046      -3.09027760      -0.89902081
 C       3.57646100      -3.49613639      -1.82056404
 H       3.34563518      -4.44756991      -2.31003424
 C       4.83422948      -2.92387089      -2.10584491
 C       5.27683672      -1.66645218      -1.61088933
 H       4.66408392      -1.26171775      -0.78146099
 C       5.66156583      -3.49248519      -3.13999490
 H       5.47890233      -4.53347673      -3.46073456
 C       6.26033358      -0.95428680      -2.24455780
 H       6.47941492       0.05780894      -1.88375831
 C       6.66290309      -2.81942065      -3.71952907
 H       7.16135397      -3.32364339      -4.54152978
 C       7.09799108      -1.50125322      -3.31313507
 O       8.08307649      -0.91457329      -3.79314170
 C      -0.20206413      -3.56258482       1.25289589
 H      -0.32018213      -4.63391029       1.12922360
 H      -1.09757012      -3.01684206       0.91662362
 C       1.44315670      -0.81606693       1.66033418
 H       1.62153938      -1.09894607       2.73107932
 H       0.40275245      -0.44244467       1.52347938
 H       2.18964862      -0.06914554       1.32463021
 H      -0.00222384      -3.33067528       2.28522532
