12
cycle 1 E = -26.3196191583 Eh
 C     -0.02618315      0.00000000      0.03445190
 C     -0.00655437      0.00000000      1.37709215
 N      1.25571276      0.00000000      1.74897774
 C      2.06536032      0.00000000      0.70936637
 N      1.35365289      0.00000000     -0.41289239
 O     -1.20298606      0.00000000     -0.87032366
 C     -1.02256040      0.00000000     -2.10496039
 H     -0.87176747      0.00000000      2.03786194
 H      3.15199501      0.00000000      0.75619150
 H      1.75263136      0.00000000      2.64769627
 O     -2.16837329      0.00000000     -2.81533980
 H      0.02589109      0.00000000     -2.33815569
12
cycle 2 E = -26.3490344425 Eh
 C     -0.01026978      0.00000000      0.04777008
 C     -0.02118785      0.00000000      1.39397443
 N      1.26117744      0.00000000      1.76062466
 C      2.05193586      0.00000000      0.68655117
 N      1.33598609      0.00000000     -0.42277923
 O     -1.17595944      0.00000000     -0.83619252
 C     -1.02394255      0.00000000     -2.09690416
 H     -0.87975036      0.00000000      2.05991801
 H      3.13687443      0.00000000      0.71474724
 H      1.73417295      0.00000000      2.66700766
 O     -2.11443343      0.00000000     -2.80788109
 H      0.01221532      0.00000000     -2.39687029
12
cycle 3 E = -26.3710146668 Eh
 C     -0.01591867      0.00000000      0.05498333
 C     -0.03112014      0.00000000      1.40530984
 N      1.27090890      0.00000000      1.76396266
 C      2.03695635      0.00000000      0.65886717
 N      1.29651754      0.00000000     -0.42625567
 O     -1.16654265      0.00000000     -0.80126104
 C     -1.02339062      0.00000000     -2.08408031
 H     -0.87269325      0.00000000      2.08714810
 H      3.11970051      0.00000000      0.66439289
 H      1.71638768      0.00000000      2.67789842
 O     -2.03294989      0.00000000     -2.81226622
 H      0.00896294      0.00000000     -2.41873323
12
cycle 4 E = -26.3812119430 Eh
 C     -0.02678787      0.00000000      0.05856713
 C     -0.03944040      0.00000000      1.41536855
 N      1.28141248      0.00000000      1.76267318
 C      2.01884023      0.00000000      0.62832621
 N      1.24972614      0.00000000     -0.43129266
 O     -1.15449991      0.00000000     -0.76551384
 C     -1.01914233      0.00000000     -2.07572841
 H     -0.85661285      0.00000000      2.11949511
 H      3.09832691      0.00000000      0.61252818
 H      1.69115796      0.00000000      2.68589399
 O     -1.95469333      0.00000000     -2.81310360
 H      0.01853168      0.00000000     -2.42724789
12
cycle 5 E = -26.3827675028 Eh
 C     -0.03008854      0.00000000      0.05629457
 C     -0.04074407      0.00000000      1.41801414
 N      1.28717090      0.00000000      1.76169006
 C      2.01549900      0.00000000      0.61927536
 N      1.23501423      0.00000000     -0.43214250
 O     -1.14400731      0.00000000     -0.75235993
 C     -1.01720606      0.00000000     -2.08040253
 H     -0.84458104      0.00000000      2.13376106
 H      3.09320893      0.00000000      0.59891627
 H      1.67244880      0.00000000      2.69200470
 O     -1.94931675      0.00000000     -2.81618227
 H      0.02942060      0.00000000     -2.42890298
12
cycle 6 E = -26.3832397524 Eh
 C     -0.03438058      0.00000000      0.05262609
 C     -0.04028509      0.00000000      1.41856242
 N      1.29039651      0.00000000      1.75902144
 C      2.01498034      0.00000000      0.61530009
 N      1.22898750      0.00000000     -0.43435440
 O     -1.13931769      0.00000000     -0.74629694
 C     -1.01379590      0.00000000     -2.08603568
 H     -0.83392014      0.00000000      2.14339808
 H      3.09154362      0.00000000      0.59463492
 H      1.65742357      0.00000000      2.69512478
 O     -1.95614255      0.00000000     -2.81654788
 H      0.04132909      0.00000000     -2.42546699
12
cycle 7 E = -26.3832762739 Eh
 C     -0.03647510      0.00000000      0.05160197
 C     -0.03956726      0.00000000      1.41828313
 N      1.29065025      0.00000000      1.75747540
 C      2.01554050      0.00000000      0.61554170
 N      1.22950388      0.00000000     -0.43533341
 O     -1.14008708      0.00000000     -0.74630233
 C     -1.01347396      0.00000000     -2.08781251
 H     -0.83098835      0.00000000      2.14532365
 H      3.09194467      0.00000000      0.59531740
 H      1.65423590      0.00000000      2.69515077
 O     -1.95791859      0.00000000     -2.81622479
 H      0.04345383      0.00000000     -2.42305502
12
cycle 8 E = -26.3832852653 Eh
 C     -0.03787750      0.00000000      0.05149299
 C     -0.03913687      0.00000000      1.41808076
 N      1.29059366      0.00000000      1.75642100
 C      2.01570059      0.00000000      0.61583501
 N      1.23014411      0.00000000     -0.43601251
 O     -1.14085625      0.00000000     -0.74645045
 C     -1.01347541      0.00000000     -2.08860245
 H     -0.82973318      0.00000000      2.14608522
 H      3.09206094      0.00000000      0.59523803
 H      1.65308831      0.00000000      2.69492895
 O     -1.95787788      0.00000000     -2.81641569
 H      0.04418817      0.00000000     -2.42063491
12
cycle 9 E = -26.3832862348 Eh
 C     -0.03818493      0.00000000      0.05173682
 C     -0.03910499      0.00000000      1.41801527
 N      1.29060282      0.00000000      1.75635140
 C      2.01561754      0.00000000      0.61592888
 N      1.23027081      0.00000000     -0.43600818
 O     -1.14094773      0.00000000     -0.74642126
 C     -1.01344215      0.00000000     -2.08869065
 H     -0.82981571      0.00000000      2.14599322
 H      3.09198803      0.00000000      0.59472261
 H      1.65320289      0.00000000      2.69498931
 O     -1.95750343      0.00000000     -2.81658791
 H      0.04413554      0.00000000     -2.42006356
12
cycle 10 E = -26.3832865772 Eh
 C     -0.03837127      0.00000000      0.05200117
 C     -0.03917341      0.00000000      1.41799789
 N      1.29065385      0.00000000      1.75643530
 C      2.01546887      0.00000000      0.61591461
 N      1.23023148      0.00000000     -0.43592646
 O     -1.14095247      0.00000000     -0.74630388
 C     -1.01327574      0.00000000     -2.08867919
 H     -0.83006954      0.00000000      2.14586878
 H      3.09185732      0.00000000      0.59407480
 H      1.65345040      0.00000000      2.69509192
 O     -1.95711646      0.00000000     -2.81672079
 H      0.04411566      0.00000000     -2.41978819
