   16
 
 C     0.000000     0.000000     0.000000
 C     0.000000     0.000000     1.400000
 C     1.212436     0.000000     2.100000
 C     2.424871     0.000000     1.400000
 C     2.424871     0.000000     0.000000
 C     1.212436     0.000000    -0.700000
 H    -0.943102     0.000000     1.944500
 H     1.212436     0.000000     3.189000
 H     3.367973     0.000000     1.944500
 H     3.367973     0.000000    -0.544500
 H     1.212436     0.000000    -1.789000
 O    -1.301076     0.000000    -0.460000
 C    -1.301076     0.000000    -1.860000
 H    -2.327796     0.000000    -2.223000
 H    -0.787717     0.889165    -2.223000
 H    -0.787717    -0.889165    -2.223000
