   17
 
 C     0.000000     0.000000     0.000000
 C     0.000000     0.000000     1.400000
 C     1.212436     0.000000     2.100000
 C     2.424871     0.000000     1.400000
 C     2.424871     0.000000     0.000000
 C     1.212436     0.000000    -0.700000
 H    -0.943102     0.000000     1.944500
 H     1.212436     0.000000     3.189000
 H     3.367973     0.000000     1.944500
 H     3.367973     0.000000    -0.544500
 H     1.212436     0.000000    -1.789000
 C    -1.414214     0.000000    -0.500000
 C    -2.675908    -0.396032     0.208016
 O    -3.905690    -0.317241    -0.456384
 O    -2.630418    -0.786798     1.362846
 H    -4.599534    -0.601581     0.126910
 O    -1.690405     0.408753    -1.788813
