   16
 
 N     0.000000     0.000000     0.000000
 C     0.000000     0.000000     1.301000
 C     1.272510     0.000000     1.704664
 C     2.074733     0.000000     0.474055
 C     1.189444     0.000000    -0.527089
 H     1.429077     0.000000    -1.590422
 C     3.570705     0.000000     0.364198
 H     1.639943     0.000000     2.730867
 H    -0.875071     0.000000     1.950885
 O     4.180029     0.000000    -0.896249
 O     4.256447     0.000000     1.373236
 O     5.432350     0.000000    -0.757354
 C     6.041673     0.000000    -2.017801
 H     7.124037     0.000000    -1.897756
 H     5.737475    -0.889165    -2.568046
 H     5.737475     0.889165    -2.568046
