43
Coordinates from ORCA-job TPSSh-D4-def2-TZVP_SCMwater E -2300.008173934822
  Fe          0.00000000000000      0.00000000000000      0.00000000000000
  O          -1.36365541927559     -0.89080102925286      1.17678678498101
  O           1.45328403068810     -0.73555972047455      1.17678678498101
  O          -0.08962861141251     -1.62636074972741     -1.17678678498101
  O           1.45328403068810      0.73555972047455     -1.17678678498101
  O          -1.36365541927559      0.89080102925286     -1.17678678498101
  O          -0.08962861141251      1.62636074972741      1.17678678498101
  C          -2.91995824354473     -2.39033825491744      2.11881490628847
  C           3.53007277416863     -1.33358888944081      2.11881490628847
  C          -0.61011453062390     -3.72392714435824     -2.11881490628847
  C           3.53007277416863      1.33358888944081     -2.11881490628847
  C          -2.91995824354473      2.39033825491744     -2.11881490628847
  C          -0.61011453062390      3.72392714435824      2.11881490628847
  C          -1.68832485654002      2.92426443120876      0.00000000000000
  C          -1.68832485654002     -2.92426443120876      0.00000000000000
  C           3.37664971308005      0.00000000000000      0.00000000000000
  C          -1.93304825201767     -2.03220676546998      1.04859238833766
  C           2.72646681064844     -0.65796551025341      1.04859238833766
  C          -0.79341855863077     -2.69017227572339     -1.04859238833766
  C           2.72646681064844      0.65796551025341     -1.04859238833766
  C          -1.93304825201767      2.03220676546998     -1.04859238833766
  C          -0.79341855863077      2.69017227572339      1.04859238833766
  H          -3.36542816972794     -3.36976189390651      1.95132713941849
  H           4.60101348969176     -1.22966534264291      1.95132713941849
  H          -1.23558531996383     -4.59942723654941     -1.95132713941849
  H           4.60101348969176      1.22966534264291     -1.95132713941849
  H          -3.36542816972794      3.36976189390651     -1.95132713941849
  H          -1.23558531996383      4.59942723654941      1.95132713941849
  H          -2.22880400782691      3.86040178166935      0.00000000000000
  H          -2.22880400782691     -3.86040178166935      0.00000000000000
  H           4.45760801565382     -0.00000000000000      0.00000000000000
  H          -3.70711622350774     -1.63181287198821      2.15037026270599
  H           3.26674951311810     -2.39455038834503      2.15037026270599
  H           0.44036671038964     -4.02636326033324     -2.15037026270599
  H           3.26674951311810      2.39455038834503     -2.15037026270599
  H          -3.70711622350774      1.63181287198821     -2.15037026270599
  H           0.44036671038964      4.02636326033324      2.15037026270599
  H          -2.41742348447150     -2.37875954826787      3.09004256844314
  H           3.26877794053052     -0.90417037512348      3.09004256844314
  H          -0.85135445605902     -3.28292992339135     -3.09004256844314
  H           3.26877794053052      0.90417037512348     -3.09004256844314
  H          -2.41742348447150      2.37875954826787     -3.09004256844314
  H          -0.85135445605902      3.28292992339135      3.09004256844314
