17
E = -29.3426648510 Eh
 C      1.14484430     -2.62916087      0.70507343
 C      0.92007016     -1.13300895      0.64544412
 C      1.45761373     -0.43235623     -0.41938545
 C      1.32620849      1.04687201     -0.62595565
 O      1.93209540      1.47545573     -1.83278289
 O      3.34583617      1.33632998     -1.75081323
 C      0.16742973     -0.57606411      1.66137860
 O     -0.11930747      0.76236372      1.68857215
 H      2.03217302     -0.96374615     -1.16833497
 H     -0.23032421     -1.17311300      2.47780075
 H      1.02576408     -3.00387292      1.72234829
 H      0.42556648     -3.14445989      0.06463818
 H      2.14755658     -2.88019364      0.35819473
 H      1.74861872      1.60741853      0.22209368
 H      0.27690401      1.34849623     -0.73639845
 H     -0.63605932      0.98943657      2.47134974
 H      3.54192867      0.64449347     -2.40606326
