43
Coordinates from ORCA-job Exc_root_opt_continue E -2299.162946190845
  Fe      0.182397      0.262919      0.125486
  O      -1.163863     -0.764923      1.379024
  O       1.761355     -0.229755      1.427108
  O       0.238792     -1.430982     -0.931301
  O       1.770426      1.006573     -1.100198
  O      -1.153685      1.117087     -1.221517
  O      -0.152501      1.910835      1.232932
  C      -2.938954     -2.175227      2.070800
  C       3.703730     -1.406818      2.106114
  C      -0.398964     -3.381225     -2.117752
  C       3.702440      0.762935     -2.455379
  C      -3.026623      2.260068     -2.115365
  C      -1.246286      3.667070      2.387649
  C      -2.058318      2.842899      0.146444
  C      -1.591645     -2.644285     -0.017055
  C       3.535584     -0.297977     -0.164248
  C      -1.837199     -1.822593      1.102504
  C       2.947562     -0.602931      1.074790
  C      -0.583017     -2.429461     -0.966346
  C       2.951179      0.486199     -1.174917
  C      -2.018741      2.044866     -1.012924
  C      -1.136789      2.749766      1.197308
  H      -3.456702     -3.097584      1.775957
  H       4.711716     -1.660605      1.754801
  H      -1.122664     -4.205652     -2.083356
  H       4.710595      0.327004     -2.433614
  H      -3.715239      3.083033     -1.880284
  H      -2.091574      4.359557      2.291532
  H      -2.837876      3.604070      0.214633
  H      -2.225730     -3.522701     -0.144450
  H       4.537187     -0.686482     -0.349883
  H      -3.663301     -1.345034      2.115136
  H       3.148091     -2.333125      2.328216
  H       0.624574     -3.788981     -2.089533
  H       3.774739      1.852385     -2.613278
  H      -3.600025      1.330122     -2.265541
  H      -0.310664      4.240139      2.488784
  H      -2.515872     -2.297012      3.080947
  H       3.775238     -0.835173      3.045457
  H      -0.509155     -2.836827     -3.068538
  H       3.142519      0.345422     -3.306618
  H      -2.498342      2.476467     -3.056677
  H      -1.364395      3.065938      3.303155
43
Coordinates from ORCA-job Exc_root_opt_continue E -2299.164877525941
  Fe      0.178313      0.265533      0.127330
  O      -1.168982     -0.760780      1.379469
  O       1.766812     -0.226106      1.437166
  O       0.240090     -1.421375     -0.937271
  O       1.778455      1.017843     -1.099367
  O      -1.158366      1.123088     -1.225091
  O      -0.153251      1.912329      1.242583
  C      -2.950003     -2.182261      2.059711
  C       3.708179     -1.404821      2.113572
  C      -0.386009     -3.387095     -2.117671
  C       3.696901      0.748624     -2.465826
  C      -3.037849      2.262001     -2.108353
  C      -1.234985      3.676203      2.389892
  C      -2.057076      2.842017      0.151791
  C      -1.599635     -2.642958     -0.029212
  C       3.540032     -0.275417     -0.150490
  C      -1.845165     -1.825663      1.095982
  C       2.954426     -0.593529      1.091201
  C      -0.588205     -2.426031     -0.975942
  C       2.957654      0.502356     -1.175495
  C      -2.020860      2.046025     -1.018829
  C      -1.131806      2.748720      1.210768
  H      -3.470437     -3.102824      1.763680
  H       4.717740     -1.650581      1.757589
  H      -1.104056     -4.217008     -2.085791
  H       4.701550      0.305808     -2.439750
  H      -3.728203      3.081480     -1.870758
  H      -2.077387      4.372645      2.292878
  H      -2.836489      3.599756      0.224405
  H      -2.231409     -3.522399     -0.159787
  H       4.537727     -0.673592     -0.340574
  H      -3.675841     -1.353094      2.108853
  H       3.154947     -2.334790      2.324309
  H       0.640164     -3.790749     -2.080884
  H       3.773991      1.833456     -2.643321
  H      -3.608932      1.331390     -2.256107
  H      -0.296123      4.245084      2.485300
  H      -2.531222     -2.308919      3.072105
  H       3.776280     -0.841625      3.058221
  H      -0.490253     -2.851608     -3.076306
  H       3.127828      0.317477     -3.306069
  H      -2.516078      2.480219     -3.053416
  H      -1.352469      3.081173      3.309505
43
Coordinates from ORCA-job Exc_root_opt_continue E -2299.166620643279
  Fe      0.164677      0.264170      0.130574
  O      -1.183227     -0.764588      1.383011
  O       1.771243     -0.219597      1.458577
  O       0.236498     -1.413345     -0.944749
  O       1.782651      1.032739     -1.101974
  O      -1.174624      1.129636     -1.234268
  O      -0.161288      1.912229      1.257659
  C      -2.960493     -2.198505      2.043731
  C       3.718107     -1.418158      2.122199
  C      -0.374619     -3.386903     -2.111681
  C       3.702238      0.734321     -2.478163
  C      -3.064967      2.265781     -2.097669
  C      -1.221668      3.697296      2.383260
  C      -2.054448      2.844280      0.152618
  C      -1.604318     -2.642539     -0.038635
  C       3.546236     -0.238755     -0.127797
  C      -1.853611     -1.830967      1.091917
  C       2.971892     -0.580026      1.120084
  C      -0.589905     -2.421128     -0.979621
  C       2.970230      0.519460     -1.180914
  C      -2.031983      2.043956     -1.031678
  C      -1.122449      2.753275      1.222688
  H      -3.481164     -3.118319      1.746705
  H       4.727134     -1.655067      1.753584
  H      -1.085113     -4.223487     -2.083480
  H       4.704995      0.287145     -2.438116
  H      -3.753764      3.083948     -1.856125
  H      -2.057379      4.401124      2.279841
  H      -2.834140      3.598118      0.232995
  H      -2.232346     -3.522627     -0.175277
  H       4.540815     -0.648920     -0.322964
  H      -3.688255     -1.372688      2.096422
  H       3.166826     -2.354687      2.313914
  H       0.653781     -3.782937     -2.070356
  H       3.784951      1.814204     -2.683145
  H      -3.637595      1.336244     -2.239280
  H      -0.277325      4.257508      2.475068
  H      -2.546371     -2.328039      3.057177
  H       3.791131     -0.877452      3.081089
  H      -0.476329     -2.855972     -3.073654
  H       3.133459      0.284255     -3.312274
  H      -2.554812      2.482663     -3.050121
  H      -1.344667      3.112353      3.308828
43
Coordinates from ORCA-job Exc_root_opt_continue E -2299.169786420727
  Fe      0.147355      0.258041      0.133322
  O      -1.202169     -0.779747      1.389548
  O       1.793927     -0.208825      1.483156
  O       0.231033     -1.415676     -0.951622
  O       1.802048      1.041960     -1.108500
  O      -1.195102      1.140442     -1.246400
  O      -0.171460      1.913059      1.269365
  C      -2.973330     -2.223818      2.027165
  C       3.744321     -1.423199      2.126987
  C      -0.372626     -3.387489     -2.108974
  C       3.719961      0.704425     -2.486168
  C      -3.098519      2.286122     -2.082369
  C      -1.223545      3.718966      2.373853
  C      -2.053703      2.856333      0.150155
  C      -1.605103     -2.650771     -0.042617
  C       3.555858     -0.199080     -0.103393
  C      -1.861871     -1.843686      1.090902
  C       2.998626     -0.561420      1.151179
  C      -0.589436     -2.423331     -0.978594
  C       2.989636      0.529910     -1.186734
  C      -2.047792      2.052143     -1.038475
  C      -1.119827      2.763589      1.223292
  H      -3.491819     -3.143675      1.727590
  H       4.750267     -1.648281      1.740791
  H      -1.077906     -4.228426     -2.084714
  H       4.719773      0.252213     -2.424587
  H      -3.782781      3.105502     -1.833794
  H      -2.053257      4.428763      2.263413
  H      -2.831441      3.612149      0.237517
  H      -2.229768     -3.531232     -0.186464
  H       4.546163     -0.622982     -0.303893
  H      -3.703641     -1.401543      2.080297
  H       3.197069     -2.365190      2.301450
  H       0.656848     -3.777899     -2.070749
  H       3.808607      1.776973     -2.722684
  H      -3.677781      1.359999     -2.220858
  H      -0.275978      4.273138      2.470605
  H      -2.565649     -2.354882      3.042230
  H       3.824187     -0.903506      3.096708
  H      -0.476554     -2.854550     -3.069064
  H       3.153290      0.231641     -3.309213
  H      -2.601817      2.502975     -3.042787
  H      -1.356092      3.140862      3.303129
43
Coordinates from ORCA-job Exc_root_opt_continue E -2299.171403992606
  Fe      0.142338      0.251499      0.131139
  O      -1.203202     -0.782476      1.387833
  O       1.790927     -0.213161      1.473860
  O       0.227825     -1.419440     -0.949512
  O       1.794366      1.030770     -1.108440
  O      -1.195622      1.135745     -1.244006
  O      -0.173659      1.904484      1.261627
  C      -2.967226     -2.228051      2.041017
  C       3.741605     -1.419193      2.119491
  C      -0.375045     -3.389749     -2.110990
  C       3.721115      0.715847     -2.473554
  C      -3.087628      2.297446     -2.086928
  C      -1.226264      3.714629      2.367362
  C      -2.054245      2.860825      0.146778
  C      -1.602605     -2.658033     -0.035204
  C       3.546317     -0.219572     -0.115052
  C      -1.862622     -1.848354      1.093014
  C       2.986368     -0.573571      1.135655
  C      -0.590086     -2.430359     -0.973908
  C       2.976129      0.514923     -1.186070
  C      -2.048209      2.056443     -1.028526
  C      -1.126112      2.762899      1.208847
  H      -3.480531     -3.151432      1.743426
  H       4.746397     -1.647766      1.737595
  H      -1.080587     -4.229999     -2.083769
  H       4.723626      0.269393     -2.416037
  H      -3.765992      3.122984     -1.839054
  H      -2.053555      4.426110      2.256076
  H      -2.825982      3.626731      0.228906
  H      -2.224079     -3.542423     -0.174010
  H       4.541160     -0.632051     -0.310894
  H      -3.702110     -1.408164      2.095147
  H       3.196337     -2.358892      2.306971
  H       0.655138     -3.779948     -2.076204
  H       3.804882      1.793232     -2.690904
  H      -3.673891      1.375289     -2.231633
  H      -0.277465      4.266497      2.466017
  H      -2.553343     -2.355517      3.054776
  H       3.821674     -0.886786      3.081264
  H      -0.483589     -2.855481     -3.069341
  H       3.162395      0.255911     -3.305540
  H      -2.582815      2.512820     -3.043012
  H      -1.362134      3.135941      3.295786
43
Coordinates from ORCA-job Exc_root_opt_continue E -2299.173668052122
  Fe      0.120016      0.240327      0.128480
  O      -1.220780     -0.796878      1.391330
  O       1.804087     -0.206337      1.475267
  O       0.219647     -1.421492     -0.949583
  O       1.796083      1.021432     -1.117732
  O      -1.209188      1.141877     -1.251669
  O      -0.181949      1.892971      1.253777
  C      -2.973256     -2.250408      2.047930
  C       3.754530     -1.410380      2.109695
  C      -0.370231     -3.393327     -2.110220
  C       3.732852      0.705365     -2.459794
  C      -3.094551      2.326549     -2.083499
  C      -1.225994      3.716227      2.356108
  C      -2.057023      2.876437      0.142801
  C      -1.599462     -2.670679     -0.029260
  C       3.539863     -0.219758     -0.115210
  C      -1.870121     -1.864341      1.096449
  C       2.986727     -0.568307      1.131769
  C      -0.590869     -2.436226     -0.969562
  C       2.969399      0.507576     -1.183416
  C      -2.056246      2.078356     -1.018105
  C      -1.139030      2.765338      1.188367
  H      -3.476192     -3.178222      1.746083
  H       4.755437     -1.639812      1.723965
  H      -1.070673     -4.237561     -2.079338
  H       4.736375      0.262209     -2.395981
  H      -3.764207      3.158349     -1.828842
  H      -2.045752      4.435115      2.243054
  H      -2.820383      3.653815      0.225291
  H      -2.213503     -3.561467     -0.167078
  H       4.534433     -0.632934     -0.309411
  H      -3.715137     -1.435181      2.100880
  H       3.210041     -2.348195      2.302045
  H       0.663202     -3.775806     -2.075233
  H       3.815838      1.782264     -2.680051
  H      -3.690285      1.409332     -2.231816
  H      -0.271772      4.259208      2.455268
  H      -2.558230     -2.375259      3.062030
  H       3.839743     -0.875207      3.067995
  H      -0.484821     -2.860312     -3.067625
  H       3.181096      0.242832     -3.290836
  H      -2.591219      2.541368     -3.040116
  H      -1.368495      3.141144      3.285793
43
Coordinates from ORCA-job Exc_root_opt_continue E -2299.174177928591
  Fe      0.113009      0.241901      0.132223
  O      -1.223998     -0.798280      1.398545
  O       1.804899     -0.203749      1.473716
  O       0.216788     -1.420889     -0.947570
  O       1.794323      1.024306     -1.111780
  O      -1.211669      1.143644     -1.254113
  O      -0.185680      1.897039      1.259697
  C      -2.979793     -2.253960      2.045931
  C       3.751766     -1.413378      2.105653
  C      -0.365420     -3.398506     -2.107804
  C       3.727212      0.714619     -2.458248
  C      -3.093120      2.322764     -2.088686
  C      -1.218608      3.720535      2.361220
  C      -2.049541      2.883699      0.138221
  C      -1.591807     -2.676604     -0.022236
  C       3.543129     -0.225984     -0.120228
  C      -1.868426     -1.869490      1.103383
  C       2.982526     -0.570772      1.126461
  C      -0.585237     -2.440122     -0.967125
  C       2.966178      0.511717     -1.178047
  C      -2.052974      2.083810     -1.023682
  C      -1.136430      2.772220      1.191579
  H      -3.479514     -3.182300      1.739457
  H       4.754220     -1.647244      1.724004
  H      -1.062716     -4.245747     -2.072112
  H       4.731176      0.272878     -2.402694
  H      -3.761794      3.155549     -1.834746
  H      -2.035533      4.443639      2.244541
  H      -2.810383      3.661480      0.218032
  H      -2.206409     -3.566658     -0.162324
  H       4.536475     -0.639365     -0.317707
  H      -3.721318     -1.439088      2.091037
  H       3.203375     -2.349209      2.297804
  H       0.669700     -3.776158     -2.075371
  H       3.807427      1.792133     -2.673205
  H      -3.688199      1.405284     -2.229483
  H      -0.261978      4.258387      2.462081
  H      -2.572139     -2.377234      3.062652
  H       3.835290     -0.877058      3.063855
  H      -0.486514     -2.866584     -3.065309
  H       3.170240      0.254943     -3.289675
  H      -2.591947      2.532754     -3.047311
  H      -1.366586      3.145080      3.289363
43
Coordinates from ORCA-job Exc_root_opt_continue E -2299.174967213625
  Fe      0.075524      0.243566      0.145701
  O      -1.242037     -0.808143      1.424283
  O       1.810897     -0.187769      1.479503
  O       0.203346     -1.412299     -0.941579
  O       1.790793      1.037205     -1.092501
  O      -1.226222      1.154244     -1.267773
  O      -0.204723      1.901895      1.278161
  C      -2.991823     -2.290515      2.048354
  C       3.742481     -1.428303      2.094864
  C      -0.345920     -3.411419     -2.095988
  C       3.707394      0.734380     -2.459155
  C      -3.087323      2.338659     -2.108050
  C      -1.198990      3.739358      2.365060
  C      -2.029304      2.912142      0.121044
  C      -1.570079     -2.702735      0.000601
  C       3.549302     -0.230221     -0.127108
  C      -1.869270     -1.894869      1.123634
  C       2.974873     -0.567435      1.124555
  C      -0.573341     -2.451908     -0.955628
  C       2.955932      0.525612     -1.166646
  C      -2.049776      2.104806     -1.042181
  C      -1.130802      2.793174      1.195742
  H      -3.474352     -3.224748      1.731472
  H       4.745489     -1.674457      1.716819
  H      -1.027231     -4.271554     -2.047061
  H       4.711547      0.294343     -2.420622
  H      -3.747173      3.179445     -1.857991
  H      -2.000680      4.480484      2.236987
  H      -2.776720      3.699188      0.191605
  H      -2.173933     -3.599695     -0.141471
  H       4.534809     -0.651815     -0.338401
  H      -3.742361     -1.485484      2.080236
  H       3.178827     -2.357943      2.276791
  H       0.696703     -3.768262     -2.070687
  H       3.781320      1.812581     -2.666480
  H      -3.689284      1.427033     -2.236792
  H      -0.232220      4.255789      2.472204
  H      -2.597037     -2.408630      3.070128
  H       3.827182     -0.900400      3.058521
  H      -0.488244     -2.885122     -3.054786
  H       3.135856      0.277751     -3.287182
  H      -2.584768      2.535337     -3.068374
  H      -1.368663      3.166737      3.290193
43
Coordinates from ORCA-job Exc_root_opt_continue E -2299.175354235005
  Fe      0.065806      0.241688      0.147677
  O      -1.245040     -0.816353      1.429236
  O       1.807974     -0.192947      1.475886
  O       0.197139     -1.418846     -0.942546
  O       1.785641      1.035668     -1.087173
  O      -1.227491      1.157727     -1.270681
  O      -0.210743      1.902566      1.280294
  C      -2.986151     -2.304884      2.054059
  C       3.737671     -1.437250      2.086560
  C      -0.342535     -3.423342     -2.089395
  C       3.703272      0.746585     -2.454901
  C      -3.081268      2.359599     -2.112648
  C      -1.204876      3.750237      2.359857
  C      -2.023091      2.922733      0.115036
  C      -1.560360     -2.715187      0.010678
  C       3.544643     -0.241695     -0.133921
  C      -1.867363     -1.904039      1.128306
  C       2.968550     -0.577441      1.115887
  C      -0.571137     -2.461551     -0.952412
  C       2.949104      0.520554     -1.166523
  C      -2.046851      2.113831     -1.045697
  C      -1.132081      2.798779      1.194728
  H      -3.462165     -3.242332      1.737659
  H       4.739227     -1.684036      1.708711
  H      -1.018963     -4.286297     -2.032586
  H       4.708761      0.307671     -2.420121
  H      -3.735238      3.205490     -1.862917
  H      -2.001823      4.494260      2.225637
  H      -2.766918      3.717056      0.181335
  H      -2.157957     -3.617748     -0.125742
  H       4.532982     -0.655917     -0.344073
  H      -3.741925     -1.503590      2.084901
  H       3.173902     -2.366227      2.269745
  H       0.702453     -3.773337     -2.066225
  H       3.775088      1.828053     -2.648469
  H      -3.690889      1.452067     -2.243592
  H      -0.236449      4.263129      2.470495
  H      -2.589340     -2.419515      3.075905
  H       3.823041     -0.908835      3.049356
  H      -0.492078     -2.901205     -3.048807
  H       3.134767      0.300111     -3.287740
  H      -2.574677      2.554168     -3.071280
  H      -1.382609      3.180601      3.285502
43
Coordinates from ORCA-job Exc_root_opt_continue E -2299.151390246501
  Fe      0.038946      0.239635      0.153880
  O      -1.248423     -0.837349      1.445712
  O       1.803355     -0.199986      1.470036
  O       0.183733     -1.430738     -0.944760
  O       1.774629      1.040503     -1.071540
  O      -1.229720      1.171571     -1.281080
  O      -0.228562      1.907957      1.288353
  C      -2.968881     -2.342744      2.071136
  C       3.721314     -1.469974      2.061900
  C      -0.329816     -3.452266     -2.068532
  C       3.690738      0.776684     -2.446071
  C      -3.065007      2.412658     -2.127563
  C      -1.223731      3.778745      2.346861
  C      -2.007605      2.951959      0.097749
  C      -1.534538     -2.746094      0.037670
  C       3.533888     -0.258761     -0.146607
  C      -1.854680     -1.931015      1.146085
  C       2.957570     -0.594254      1.099523
  C      -0.561421     -2.484353     -0.939782
  C       2.937233      0.522358     -1.162463
  C      -2.036549      2.141549     -1.059951
  C      -1.135061      2.817718      1.190431
  H      -3.431287     -3.287308      1.757198
  H       4.718684     -1.720232      1.680283
  H      -0.991219     -4.324610     -1.993677
  H       4.697550      0.337811     -2.419802
  H      -3.705007      3.269578     -1.878666
  H      -2.009265      4.529315      2.195344
  H      -2.743876      3.758426      0.155364
  H      -2.118391     -3.660009     -0.086576
  H       4.521659     -0.670302     -0.361213
  H      -3.735321     -1.549950      2.096948
  H       3.151020     -2.396282      2.236352
  H       0.721413     -3.783135     -2.053189
  H       3.760486      1.863059     -2.615794
  H      -3.691311      1.514983     -2.261939
  H      -0.252048      4.282924      2.471888
  H      -2.571586     -2.447926      3.094245
  H       3.811393     -0.952763      3.029610
  H      -0.499172     -2.940864     -3.029490
  H       3.124294      0.348104     -3.285881
  H      -2.550770      2.601011     -3.083488
  H      -1.424658      3.214368      3.271499
43
Coordinates from ORCA-job Exc_root_opt_continue E -2299.175720172407
  Fe      0.046647      0.241501      0.150145
  O      -1.239273     -0.830778      1.439049
  O       1.800638     -0.200218      1.465333
  O       0.187032     -1.427182     -0.946774
  O       1.776171      1.040880     -1.071364
  O      -1.226016      1.168678     -1.276191
  O      -0.226430      1.906656      1.284618
  C      -2.959273     -2.333925      2.077130
  C       3.717646     -1.467597      2.064810
  C      -0.335431     -3.448431     -2.071339
  C       3.690471      0.772836     -2.448285
  C      -3.057236      2.410631     -2.130480
  C      -1.232192      3.769414      2.349674
  C      -2.015075      2.946209      0.101548
  C      -1.540397     -2.740570      0.032707
  C       3.534880     -0.256650     -0.145596
  C      -1.850284     -1.926277      1.143629
  C       2.960179     -0.591532      1.097455
  C      -0.565175     -2.481296     -0.942120
  C       2.942134      0.523662     -1.161320
  C      -2.036000      2.137013     -1.056882
  C      -1.137529      2.813173      1.190104
  H      -3.427524     -3.277996      1.770054
  H       4.715257     -1.715455      1.682104
  H      -0.998850     -4.319915     -2.001335
  H       4.695568      0.331108     -2.419696
  H      -3.698739      3.266793     -1.884955
  H      -2.022294      4.515855      2.203062
  H      -2.753212      3.749269      0.159560
  H      -2.126021     -3.653328     -0.088956
  H       4.521411     -0.672249     -0.359316
  H      -3.724171     -1.539879      2.107522
  H       3.147343     -2.394458      2.237303
  H       0.714607     -3.783747     -2.056896
  H       3.763100      1.858342     -2.622051
  H      -3.682168      1.512962     -2.270395
  H      -0.263354      4.278922      2.476426
  H      -2.557468     -2.438303      3.098641
  H       3.806198     -0.950069      3.032663
  H      -0.501179     -2.936225     -3.032827
  H       3.121859      0.341532     -3.286109
  H      -2.537528      2.600193     -3.083398
  H      -1.428319      3.200454      3.272748
43
Coordinates from ORCA-job Exc_root_opt_continue E -2299.184763049502
  Fe      0.036050      0.240851      0.150938
  O      -1.239174     -0.835724      1.443525
  O       1.795246     -0.203044      1.463633
  O       0.181116     -1.428268     -0.949210
  O       1.770956      1.043754     -1.065980
  O      -1.227702      1.172850     -1.279353
  O      -0.234234      1.906453      1.286870
  C      -2.950853     -2.345657      2.088085
  C       3.708748     -1.476972      2.060205
  C      -0.333699     -3.454671     -2.067611
  C       3.684431      0.785757     -2.445761
  C      -3.047679      2.422091     -2.141701
  C      -1.231407      3.773794      2.348003
  C      -2.012454      2.954495      0.095794
  C      -1.534987     -2.749419      0.040263
  C       3.528960     -0.258932     -0.148384
  C      -1.845643     -1.934917      1.151259
  C       2.952694     -0.597986      1.093946
  C      -0.564270     -2.486852     -0.938865
  C       2.935781      0.526196     -1.160570
  C      -2.032269      2.145778     -1.063373
  C      -1.140568      2.816324      1.189256
  H      -3.415729     -3.292598      1.784174
  H       4.707397     -1.724683      1.677561
  H      -0.991758     -4.330037     -1.993525
  H       4.689515      0.344205     -2.420075
  H      -3.686064      3.281405     -1.899368
  H      -2.016554      4.525472      2.198281
  H      -2.745626      3.761006      0.150030
  H      -2.116830     -3.664876     -0.078125
  H       4.516163     -0.672547     -0.363111
  H      -3.718944     -1.555317      2.118377
  H       3.137523     -2.403884      2.229313
  H       0.718266     -3.783863     -2.057236
  H       3.756945      1.872301     -2.610718
  H      -3.675838      1.527591     -2.283353
  H      -0.259693      4.277005      2.477480
  H      -2.546718     -2.445855      3.108868
  H       3.796603     -0.961879      3.029534
  H      -0.506369     -2.945078     -3.029527
  H       3.115715      0.360581     -3.287726
  H      -2.523516      2.608065     -3.092836
  H      -1.433533      3.207084      3.271014
43
Coordinates from ORCA-job Exc_root_opt_continue E -2299.175966533526
  Fe      0.016394      0.240447      0.146749
  O      -1.233381     -0.849399      1.444038
  O       1.766830     -0.215280      1.461897
  O       0.166399     -1.431142     -0.962628
  O       1.751338      1.052086     -1.058590
  O      -1.226698      1.187023     -1.284548
  O      -0.251864      1.903158      1.286884
  C      -2.914442     -2.376509      2.126779
  C       3.673785     -1.502481      2.052798
  C      -0.329425     -3.469835     -2.060576
  C       3.668093      0.819673     -2.439256
  C      -3.020127      2.451206     -2.176373
  C      -1.224153      3.782850      2.344139
  C      -2.014503      2.974975      0.083877
  C      -1.531054     -2.768659      0.050010
  C       3.502245     -0.259794     -0.151166
  C      -1.832510     -1.954166      1.166886
  C       2.924905     -0.614872      1.090364
  C      -0.566098     -2.497206     -0.937436
  C       2.915196      0.534047     -1.163330
  C      -2.023504      2.170322     -1.081174
  C      -1.151372      2.821275      1.187793
  H      -3.373873     -3.331329      1.838591
  H       4.677281     -1.747344      1.671084
  H      -0.974033     -4.354898     -1.980134
  H       4.673042      0.378283     -2.416755
  H      -3.654758      3.315769     -1.945020
  H      -1.996681      4.548880      2.192236
  H      -2.734534      3.788312      0.129546
  H      -2.099987     -3.692426     -0.054991
  H       4.493157     -0.667288     -0.364531
  H      -3.690314     -1.596830      2.167096
  H       3.102883     -2.431681      2.210359
  H       0.726896     -3.783929     -2.055017
  H       3.742942      1.908046     -2.582819
  H      -3.653176      1.563636     -2.328591
  H      -0.244217      4.269787      2.476676
  H      -2.491222     -2.465143      3.139857
  H       3.758578     -0.996745      3.027825
  H      -0.513577     -2.968431     -3.025405
  H       3.103590      0.410438     -3.295787
  H      -2.481917      2.631304     -3.121074
  H      -1.436131      3.223871      3.269719
43
Coordinates from ORCA-job Exc_root_opt_continue E -2299.152772620086
  Fe      0.002990      0.243690      0.143373
  O      -1.226310     -0.856672      1.446717
  O       1.750209     -0.218215      1.457283
  O       0.157223     -1.431783     -0.970926
  O       1.738799      1.061340     -1.052276
  O      -1.224339      1.200214     -1.289153
  O      -0.263694      1.906521      1.284580
  C      -2.881909     -2.398840      2.153464
  C       3.647456     -1.524078      2.036259
  C      -0.323204     -3.483333     -2.049561
  C       3.656642      0.833295     -2.433051
  C      -2.997010      2.485862     -2.197472
  C      -1.239382      3.788157      2.340845
  C      -2.010999      2.994012      0.072511
  C      -1.516584     -2.782683      0.063854
  C       3.485244     -0.262114     -0.154677
  C      -1.815266     -1.967919      1.180565
  C       2.908357     -0.618759      1.083410
  C      -0.562917     -2.504440     -0.933087
  C       2.904983      0.546149     -1.157762
  C      -2.016569      2.190344     -1.091462
  C      -1.154364      2.834050      1.179293
  H      -3.332534     -3.360329      1.874616
  H       4.648739     -1.770463      1.654522
  H      -0.956169     -4.375478     -1.958199
  H       4.659882      0.386858     -2.414396
  H      -3.624587      3.357220     -1.971152
  H      -2.007380      4.556920      2.185477
  H      -2.728348      3.812630      0.114590
  H      -2.074531     -3.714679     -0.030006
  H       4.470795     -0.679814     -0.373211
  H      -3.667013     -1.627315      2.197565
  H       3.070405     -2.451760      2.179731
  H       0.737052     -3.784252     -2.049219
  H       3.736902      1.922472     -2.571978
  H      -3.638750      1.605175     -2.359645
  H      -0.259866      4.271493      2.488349
  H      -2.447157     -2.477357      3.162857
  H       3.733143     -1.032440      3.017984
  H      -0.520039     -2.991642     -3.016354
  H       3.090445      0.430953     -3.289551
  H      -2.446064      2.662774     -3.135424
  H      -1.464281      3.224233      3.260718
43
Coordinates from ORCA-job Exc_root_opt_continue E -2299.153245815988
  Fe     -0.003441      0.247751      0.139503
  O      -1.217358     -0.857952      1.448049
  O       1.743450     -0.214548      1.450805
  O       0.152874     -1.430253     -0.975597
  O       1.733393      1.067028     -1.048997
  O      -1.221672      1.209244     -1.292124
  O      -0.268992      1.911875      1.279850
  C      -2.856714     -2.411066      2.167003
  C       3.632607     -1.533000      2.021421
  C      -0.323052     -3.490786     -2.042911
  C       3.652066      0.828981     -2.427020
  C      -2.981871      2.514045     -2.204359
  C      -1.262224      3.788092      2.337468
  C      -2.005536      3.004987      0.065332
  C      -1.500222     -2.789876      0.075020
  C       3.478818     -0.263622     -0.155739
  C      -1.798107     -1.975904      1.188547
  C       2.901603     -0.613276      1.076122
  C      -0.559767     -2.507911     -0.929559
  C       2.902856      0.554334     -1.148283
  C      -2.011851      2.201973     -1.094736
  C      -1.152768      2.845312      1.169227
  H      -3.299667     -3.376576      1.891892
  H       4.628012     -1.782011      1.640651
  H      -0.949229     -4.386166     -1.941401
  H       4.653410      0.376572     -2.409672
  H      -3.603112      3.390656     -1.977205
  H      -2.030902      4.552632      2.178613
  H      -2.727442      3.827513      0.108055
  H      -2.052740     -3.727294     -0.012643
  H       4.456341     -0.695767     -0.379480
  H      -3.650041     -1.643972      2.212193
  H       3.048452     -2.457733      2.154836
  H       0.739568     -3.784812     -2.049412
  H       3.737185      1.918608     -2.572269
  H      -3.631425      1.637615     -2.373629
  H      -0.287401      4.274863      2.500604
  H      -2.415868     -2.483536      3.175578
  H       3.719363     -1.051752      3.007252
  H      -0.531179     -3.005793     -3.009605
  H       3.083205      0.425756     -3.275343
  H      -2.422491      2.691381     -3.136904
  H      -1.498133      3.214388      3.248867
43
Coordinates from ORCA-job Exc_root_opt_continue E -2299.154412767999
  Fe     -0.011723      0.246268      0.133394
  O      -1.214605     -0.858287      1.445152
  O       1.733231     -0.216493      1.449077
  O       0.144399     -1.431368     -0.984642
  O       1.727682      1.068298     -1.051178
  O      -1.225460      1.212251     -1.296343
  O      -0.273343      1.912869      1.277447
  C      -2.840580     -2.423458      2.176448
  C       3.622932     -1.533392      2.023005
  C      -0.334459     -3.497039     -2.047555
  C       3.653991      0.836851     -2.419941
  C      -2.977578      2.522375     -2.209161
  C      -1.257246      3.791619      2.333133
  C      -2.000785      3.008136      0.060785
  C      -1.496493     -2.797489      0.077791
  C       3.472817     -0.259548     -0.151624
  C      -1.791655     -1.984251      1.190418
  C       2.890734     -0.616766      1.076208
  C      -0.565972     -2.513430     -0.932512
  C       2.896970      0.554112     -1.147837
  C      -2.010124      2.204625     -1.101798
  C      -1.151149      2.845132      1.169265
  H      -3.278645     -3.392557      1.906233
  H       4.619586     -1.778955      1.644872
  H      -0.957776     -4.393933     -1.940958
  H       4.656265      0.386745     -2.397246
  H      -3.595879      3.401085     -1.982020
  H      -2.021589      4.560054      2.172063
  H      -2.718451      3.835364      0.102115
  H      -2.047402     -3.736535     -0.007718
  H       4.453201     -0.687036     -0.371422
  H      -3.640156     -1.662165      2.226301
  H       3.041307     -2.460012      2.155214
  H       0.728832     -3.789650     -2.061792
  H       3.736891      1.927761     -2.559559
  H      -3.629686      1.647885     -2.378433
  H      -0.279593      4.272634      2.494208
  H      -2.392546     -2.491138      3.182772
  H       3.705269     -1.051367      3.008983
  H      -0.550429     -3.014281     -3.013996
  H       3.092075      0.436286     -3.273686
  H      -2.416038      2.698070     -3.140399
  H      -1.496817      3.220732      3.244935
43
Coordinates from ORCA-job Exc_root_opt_continue E -2299.173910900939
  Fe     -0.035885      0.244457      0.121132
  O      -1.197333     -0.852156      1.435151
  O       1.710621     -0.215279      1.448291
  O       0.127440     -1.424467     -1.003909
  O       1.713165      1.065600     -1.060741
  O      -1.231292      1.217710     -1.301433
  O      -0.284297      1.921255      1.278278
  C      -2.800814     -2.444298      2.190528
  C       3.603618     -1.514412      2.044103
  C      -0.363682     -3.496586     -2.076838
  C       3.649414      0.832421     -2.408671
  C      -2.963728      2.524949     -2.215557
  C      -1.241976      3.796496      2.332663
  C      -1.987348      3.009674      0.055179
  C      -1.485708     -2.808060      0.074914
  C       3.456448     -0.254610     -0.140405
  C      -1.771980     -2.003521      1.186154
  C       2.862378     -0.615656      1.085420
  C      -0.582107     -2.520200     -0.945303
  C       2.874950      0.545730     -1.145678
  C      -1.999791      2.206558     -1.111455
  C      -1.148003      2.843527      1.173955
  H      -3.231389     -3.419534      1.927207
  H       4.606826     -1.755315      1.673530
  H      -0.982211     -4.396783     -1.961509
  H       4.651084      0.385291     -2.374326
  H      -3.577910      3.406021     -1.989366
  H      -1.999593      4.573445      2.166557
  H      -2.696232      3.840316      0.093524
  H      -2.033758     -3.749458     -0.011487
  H       4.443132     -0.670621     -0.349658
  H      -3.611502     -1.696414      2.255617
  H       3.025872     -2.442816      2.180929
  H       0.699879     -3.789272     -2.113660
  H       3.729111      1.923345     -2.543838
  H      -3.615666      1.652113     -2.378214
  H      -0.257388      4.264332      2.484739
  H      -2.337045     -2.505823      3.190685
  H       3.673336     -1.019621      3.025715
  H      -0.600103     -3.014145     -3.040666
  H       3.093636      0.432289     -3.270677
  H      -2.397927      2.694264     -3.144126
  H      -1.486242      3.229254      3.243246
43
Coordinates from ORCA-job Exc_root_opt_continue E -2299.159216101686
  Fe     -0.039453      0.241058      0.124628
  O      -1.202203     -0.859525      1.441526
  O       1.710359     -0.224336      1.445152
  O       0.127047     -1.428496     -1.002828
  O       1.712303      1.066839     -1.049672
  O      -1.230591      1.218830     -1.303158
  O      -0.289843      1.912638      1.280239
  C      -2.800707     -2.444324      2.205768
  C       3.599520     -1.535504      2.034098
  C      -0.348750     -3.499823     -2.065891
  C       3.642381      0.849456     -2.411301
  C      -2.956078      2.540093     -2.232558
  C      -1.251447      3.796878      2.333672
  C      -1.995602      3.019934      0.050727
  C      -1.482219     -2.816366      0.086405
  C       3.454236     -0.265603     -0.150291
  C      -1.772989     -2.004461      1.198367
  C       2.862689     -0.630310      1.077491
  C      -0.573262     -2.524579     -0.939295
  C       2.875640      0.548746     -1.146523
  C      -2.000450      2.218464     -1.116051
  C      -1.159237      2.844914      1.171668
  H      -3.231820     -3.421157      1.949272
  H       4.603411     -1.778048      1.661069
  H      -0.961659     -4.403644     -1.951236
  H       4.643612      0.400072     -2.387045
  H      -3.568476      3.423578     -2.011810
  H      -2.005290      4.577314      2.167833
  H      -2.699008      3.852658      0.084468
  H      -2.024831     -3.759999      0.007459
  H       4.441203     -0.680281     -0.363985
  H      -3.609157     -1.696126      2.266025
  H       3.020704     -2.463482      2.168072
  H       0.716442     -3.784339     -2.100783
  H       3.724677      1.940750     -2.534406
  H      -3.611489      1.671462     -2.403812
  H      -0.266042      4.262410      2.493666
  H      -2.337559     -2.500122      3.205361
  H       3.672690     -1.045243      3.017431
  H      -0.586395     -3.018286     -3.029508
  H       3.081946      0.459727     -3.276317
  H      -2.384495      2.707564     -3.159002
  H      -1.499809      3.230671      3.245078
43
Coordinates from ORCA-job Exc_root_opt_continue E -2299.153074294819
  Fe     -0.033798      0.237194      0.122990
  O      -1.199567     -0.860233      1.437645
  O       1.705547     -0.236435      1.448361
  O       0.124616     -1.429502     -1.001478
  O       1.708185      1.063334     -1.056768
  O      -1.222592      1.205740     -1.300821
  O      -0.283657      1.898527      1.273375
  C      -2.791358     -2.434562      2.203470
  C       3.599322     -1.535369      2.039416
  C      -0.360445     -3.487741     -2.060488
  C       3.643042      0.857535     -2.410532
  C      -2.952288      2.522726     -2.245233
  C      -1.243198      3.781815      2.342221
  C      -2.003576      3.020765      0.049446
  C      -1.484557     -2.807227      0.085784
  C       3.442306     -0.268279     -0.151953
  C      -1.765685     -1.995523      1.196196
  C       2.854607     -0.642567      1.083425
  C      -0.577620     -2.512906     -0.933632
  C       2.869773      0.549986     -1.155690
  C      -2.003418      2.219758     -1.114166
  C      -1.169218      2.841709      1.164683
  H      -3.225656     -3.410398      1.948765
  H       4.604780     -1.773801      1.666453
  H      -0.976535     -4.389971     -1.948518
  H       4.645148      0.410529     -2.384512
  H      -3.568115      3.405440     -2.029320
  H      -1.997407      4.564276      2.182150
  H      -2.706760      3.853171      0.083873
  H      -2.032408     -3.747494      0.004760
  H       4.433136     -0.676176     -0.361754
  H      -3.594288     -1.681836      2.261767
  H       3.027139     -2.466663      2.178469
  H       0.703432     -3.773312     -2.094819
  H       3.725231      1.949338     -2.529378
  H      -3.607309      1.652767     -2.420836
  H      -0.256777      4.248206      2.504878
  H      -2.324433     -2.488399      3.200117
  H       3.672437     -1.040587      3.020918
  H      -0.596488     -3.000050     -3.020548
  H       3.087562      0.471061     -3.281063
  H      -2.380674      2.690251     -3.173649
  H      -1.488433      3.214903      3.255998
43
Coordinates from ORCA-job Exc_root_opt_continue E -2299.175371168350
  Fe     -0.039296      0.235534      0.116628
  O      -1.198680     -0.861588      1.426474
  O       1.695487     -0.243189      1.448093
  O       0.120779     -1.439947     -1.013760
  O       1.704966      1.064040     -1.060722
  O      -1.225934      1.210763     -1.298311
  O      -0.283453      1.907118      1.271589
  C      -2.771625     -2.445599      2.215426
  C       3.590497     -1.539489      2.037583
  C      -0.363395     -3.505860     -2.064704
  C       3.644125      0.860371     -2.407032
  C      -2.944915      2.548113     -2.243527
  C      -1.257370      3.792961      2.336117
  C      -1.998600      3.032563      0.045747
  C      -1.482067     -2.821821      0.086362
  C       3.433959     -0.270527     -0.150918
  C      -1.760976     -2.003440      1.192115
  C       2.852142     -0.639596      1.083312
  C      -0.577990     -2.527595     -0.940603
  C       2.870614      0.552338     -1.153532
  C      -2.000343      2.230798     -1.112965
  C      -1.162063      2.853927      1.160998
  H      -3.201371     -3.426733      1.975414
  H       4.594813     -1.771075      1.660995
  H      -0.975583     -4.409937     -1.950169
  H       4.645280      0.409968     -2.373670
  H      -3.552772      3.436728     -2.029610
  H      -2.012853      4.572329      2.174219
  H      -2.705835      3.863643      0.080132
  H      -2.021828     -3.767218      0.018100
  H       4.424260     -0.680819     -0.359147
  H      -3.581139     -1.699044      2.278004
  H       3.019474     -2.472587      2.168156
  H       0.701176     -3.789218     -2.103992
  H       3.728297      1.952439     -2.525283
  H      -3.608196      1.684226     -2.420658
  H      -0.275376      4.263521      2.509818
  H      -2.294972     -2.488649      3.208756
  H       3.661046     -1.052257      3.022279
  H      -0.604015     -3.021719     -3.025075
  H       3.092595      0.474205     -3.277771
  H      -2.369837      2.710804     -3.170139
  H      -1.509026      3.221516      3.245269
43
Coordinates from ORCA-job Exc_root_opt_continue E -2299.154579800253
  Fe     -0.046240      0.236819      0.118821
  O      -1.208335     -0.864519      1.430814
  O       1.694474     -0.240285      1.446662
  O       0.118295     -1.437706     -1.015203
  O       1.703593      1.066309     -1.053450
  O      -1.230827      1.215369     -1.298811
  O      -0.287800      1.908156      1.275540
  C      -2.783847     -2.451217      2.220205
  C       3.592426     -1.540206      2.031637
  C      -0.353334     -3.509057     -2.066276
  C       3.641781      0.861052     -2.406239
  C      -2.946225      2.552759     -2.241775
  C      -1.254974      3.795940      2.332676
  C      -1.992093      3.036786      0.042860
  C      -1.480511     -2.828516      0.090243
  C       3.439610     -0.270115     -0.151566
  C      -1.767810     -2.007516      1.199505
  C       2.854691     -0.632006      1.080533
  C      -0.574385     -2.530146     -0.944004
  C       2.870596      0.555114     -1.146903
  C      -1.999032      2.233923     -1.114612
  C      -1.160137      2.853919      1.162814
  H      -3.210359     -3.433353      1.978427
  H       4.597956     -1.772948      1.657506
  H      -0.960949     -4.415372     -1.948756
  H       4.643137      0.410869     -2.378803
  H      -3.552715      3.442290     -2.027894
  H      -2.005947      4.578921      2.168399
  H      -2.693958      3.871058      0.074087
  H      -2.012657     -3.777748      0.025587
  H       4.428117     -0.683197     -0.363590
  H      -3.594688     -1.706299      2.278108
  H       3.019537     -2.473083      2.156811
  H       0.713154     -3.786334     -2.104305
  H       3.725342      1.952583     -2.524595
  H      -3.609900      1.690293     -2.415428
  H      -0.271463      4.261311      2.506448
  H      -2.311140     -2.493025      3.215388
  H       3.660959     -1.058484      3.018949
  H      -0.597117     -3.027525     -3.027429
  H       3.086077      0.474838     -3.274996
  H      -2.371867      2.713691     -3.168055
  H      -1.511435      3.226658      3.240672
43
Coordinates from ORCA-job Exc_root_opt_continue E -2299.175098430361
  Fe     -0.058061      0.234587      0.119047
  O      -1.228278     -0.868932      1.427476
  O       1.692385     -0.237524      1.446488
  O       0.115055     -1.437180     -1.023517
  O       1.702676      1.063504     -1.049216
  O      -1.245630      1.222248     -1.297020
  O      -0.289160      1.913631      1.284781
  C      -2.812664     -2.459495      2.216573
  C       3.606696     -1.520385      2.036992
  C      -0.341717     -3.515714     -2.080225
  C       3.641637      0.849252     -2.407248
  C      -2.959706      2.555054     -2.228157
  C      -1.239075      3.803866      2.329428
  C      -1.978589      3.039783      0.044094
  C      -1.484818     -2.840905      0.085642
  C       3.451983     -0.266017     -0.147086
  C      -1.785836     -2.017137      1.200954
  C       2.860554     -0.616762      1.080464
  C      -0.571606     -2.539211     -0.957684
  C       2.871382      0.552625     -1.138020
  C      -1.999601      2.234036     -1.114100
  C      -1.146510      2.853037      1.171531
  H      -3.235357     -3.443087      1.972358
  H       4.617599     -1.747847      1.670012
  H      -0.945554     -4.423918     -1.960134
  H       4.643658      0.401195     -2.384517
  H      -3.562914      3.446072     -2.012273
  H      -1.983702      4.592038      2.162264
  H      -2.673475      3.876556      0.073936
  H      -2.009852     -3.793546      0.022828
  H       4.442536     -0.674757     -0.359152
  H      -3.625477     -1.717138      2.266349
  H       3.040877     -2.457673      2.162644
  H       0.726586     -3.788242     -2.117758
  H       3.722439      1.939222     -2.531062
  H      -3.623921      1.693974     -2.389504
  H      -0.252296      4.260734      2.498786
  H      -2.348780     -2.499995      3.215835
  H       3.665769     -1.036299      3.023653
  H      -0.589119     -3.036301     -3.042390
  H       3.081244      0.457349     -3.272397
  H      -2.391332      2.710972     -3.157249
  H      -1.500046      3.238333      3.236573
43
Coordinates from ORCA-job Exc_root_opt_continue E -2299.198785505199
  Fe     -0.051740      0.233364      0.116503
  O      -1.219471     -0.868722      1.424362
  O       1.691513     -0.241653      1.446088
  O       0.114738     -1.438094     -1.021539
  O       1.701979      1.061641     -1.055622
  O      -1.240743      1.218826     -1.297623
  O      -0.286983      1.908897      1.279030
  C      -2.796128     -2.458981      2.212496
  C       3.599258     -1.524596      2.040666
  C      -0.349189     -3.513608     -2.071481
  C       3.640802      0.851719     -2.408370
  C      -2.956160      2.556546     -2.233701
  C      -1.240717      3.801430      2.331806
  C      -1.986555      3.038975      0.046009
  C      -1.483386     -2.834609      0.084448
  C       3.443749     -0.266298     -0.147576
  C      -1.777133     -2.014093      1.195222
  C       2.855356     -0.627764      1.081351
  C      -0.574649     -2.535195     -0.950461
  C       2.869047      0.549527     -1.146566
  C      -2.002107      2.234295     -1.113557
  C      -1.151040      2.853724      1.166854
  H      -3.219545     -3.442342      1.969277
  H       4.608625     -1.751173      1.671755
  H      -0.954521     -4.421513     -1.952226
  H       4.642522      0.403007     -2.381063
  H      -3.559903      3.447373     -2.018133
  H      -1.987488      4.588433      2.167148
  H      -2.684494      3.875555      0.078949
  H      -2.012628     -3.785779      0.019337
  H       4.436311     -0.671373     -0.355316
  H      -3.609278     -1.716540      2.267338
  H       3.034764     -2.461969      2.170306
  H       0.718010     -3.788478     -2.109706
  H       3.723181      1.942925     -2.529665
  H      -3.621528      1.694937     -2.401987
  H      -0.253821      4.260667      2.502208
  H      -2.327348     -2.500194      3.209501
  H       3.660757     -1.036205      3.025496
  H      -0.595110     -3.034628     -3.033726
  H       3.084656      0.462585     -3.276338
  H      -2.384886      2.714750     -3.162214
  H      -1.498715      3.234633      3.240719
43
Coordinates from ORCA-job Exc_root_opt_continue E -2299.175197910158
  Fe     -0.042009      0.232717      0.115635
  O      -1.212789     -0.862144      1.409211
  O       1.686653     -0.255201      1.451552
  O       0.119402     -1.438530     -1.011726
  O       1.696960      1.068554     -1.062461
  O      -1.236087      1.206858     -1.284698
  O      -0.282014      1.904153      1.267948
  C      -2.784517     -2.444240      2.194918
  C       3.585454     -1.545528      2.036601
  C      -0.343312     -3.509406     -2.051760
  C       3.636287      0.865530     -2.406441
  C      -2.958572      2.539421     -2.228807
  C      -1.232139      3.801953      2.328960
  C      -1.995759      3.039797      0.048959
  C      -1.478914     -2.823946      0.082177
  C       3.421984     -0.263606     -0.147579
  C      -1.767794     -2.001719      1.180834
  C       2.844012     -0.644187      1.086791
  C      -0.570920     -2.525369     -0.936950
  C       2.860128      0.557254     -1.155544
  C      -2.006272      2.227487     -1.102708
  C      -1.153743      2.854276      1.157577
  H      -3.209226     -3.427556      1.955921
  H       4.592113     -1.768782      1.659712
  H      -0.949460     -4.417646     -1.936519
  H       4.636760      0.413288     -2.372488
  H      -3.564951      3.429584     -2.019247
  H      -1.980229      4.589049      2.170221
  H      -2.694771      3.877322      0.083075
  H      -2.009203     -3.775016      0.016154
  H       4.416333     -0.665859     -0.353536
  H      -3.595983     -1.699510      2.246115
  H       3.021148     -2.483307      2.162320
  H       0.723071     -3.784834     -2.082590
  H       3.723612      1.957933     -2.523619
  H      -3.622429      1.673755     -2.395378
  H      -0.243237      4.261458      2.493860
  H      -2.315705     -2.481743      3.191602
  H       3.653446     -1.062791      3.024101
  H      -0.581861     -3.032674     -3.015896
  H       3.085206      0.482160     -3.278885
  H      -2.388017      2.694413     -3.159681
  H      -1.482656      3.236628      3.242266
43
Coordinates from ORCA-job Exc_root_opt_continue E -2299.155680334201
  Fe     -0.047071      0.233058      0.116114
  O      -1.224387     -0.865522      1.412550
  O       1.689434     -0.247282      1.450641
  O       0.117785     -1.437643     -1.015537
  O       1.699504      1.063555     -1.061709
  O      -1.244134      1.212984     -1.287742
  O      -0.282152      1.907860      1.272515
  C      -2.801096     -2.452082      2.196910
  C       3.596465     -1.530493      2.040308
  C      -0.339314     -3.512042     -2.062260
  C       3.640395      0.852745     -2.408769
  C      -2.966393      2.545464     -2.223877
  C      -1.228346      3.804409      2.329514
  C      -1.990754      3.040350      0.050118
  C      -1.483003     -2.830484      0.079994
  C       3.435384     -0.261697     -0.145236
  C      -1.779433     -2.007775      1.184332
  C       2.851340     -0.632566      1.085718
  C      -0.570468     -2.530502     -0.944996
  C       2.865160      0.551824     -1.151293
  C      -2.008387      2.229959     -1.104202
  C      -1.148143      2.855358      1.162133
  H      -3.223181     -3.436015      1.954694
  H       4.604973     -1.754266      1.667845
  H      -0.944293     -4.420633     -1.945988
  H       4.641559      0.402600     -2.376954
  H      -3.570949      3.436229     -2.010642
  H      -1.975022      4.592440      2.169146
  H      -2.688255      3.877919      0.085034
  H      -2.011925     -3.781793      0.012608
  H       4.429730     -0.664007     -0.351142
  H      -3.614127     -1.709112      2.246183
  H       3.033863     -2.469057      2.168829
  H       0.728057     -3.785540     -2.093481
  H       3.725227      1.944047     -2.531373
  H      -3.631148      1.681411     -2.387016
  H      -0.239338      4.262150      2.494073
  H      -2.335598     -2.490217      3.195371
  H       3.660626     -1.044344      3.026180
  H      -0.579751     -3.034613     -3.026195
  H       3.087032      0.463798     -3.278081
  H      -2.398708      2.700414     -3.155661
  H      -1.481157      3.239109      3.241342
43
Coordinates from ORCA-job Exc_root_opt_continue E -2299.174906999924
  Fe     -0.061579      0.236486      0.115822
  O      -1.235476     -0.867200      1.424002
  O       1.691093     -0.229521      1.446466
  O       0.111830     -1.428724     -1.021881
  O       1.700381      1.054710     -1.058824
  O      -1.258124      1.224686     -1.297185
  O      -0.288301      1.914665      1.278872
  C      -2.816636     -2.465573      2.213853
  C       3.609736     -1.507228      2.044247
  C      -0.337549     -3.509382     -2.084167
  C       3.646584      0.831099     -2.409834
  C      -2.968280      2.557750     -2.226053
  C      -1.228248      3.800728      2.331948
  C      -1.984316      3.035959      0.049823
  C      -1.488146     -2.838166      0.079798
  C       3.453890     -0.261393     -0.143027
  C      -1.793144     -2.018594      1.197361
  C       2.857693     -0.613697      1.082829
  C      -0.574241     -2.535478     -0.957909
  C       2.869572      0.540789     -1.142881
  C      -2.009957      2.231467     -1.112581
  C      -1.144673      2.852850      1.169016
  H      -3.234628     -3.450903      1.966995
  H       4.620682     -1.735245      1.679269
  H      -0.939724     -4.419110     -1.965295
  H       4.648593      0.384672     -2.380857
  H      -3.569315      3.450179     -2.007231
  H      -1.974060      4.589213      2.168544
  H      -2.677975      3.874510      0.085219
  H      -2.014369     -3.790350      0.008986
  H       4.447678     -0.665253     -0.349205
  H      -3.633756     -1.727320      2.267628
  H       3.047204     -2.445345      2.177943
  H       0.731939     -3.778871     -2.119738
  H       3.727080      1.920507     -2.539010
  H      -3.634582      1.698277     -2.389809
  H      -0.239634      4.256113      2.495550
  H      -2.349777     -2.505074      3.212318
  H       3.668926     -1.014299      3.026579
  H      -0.584006     -3.029800     -3.047073
  H       3.090412      0.434228     -3.275489
  H      -2.399001      2.714045     -3.154875
  H      -1.483795      3.233591      3.239858
43
Coordinates from ORCA-job Exc_root_opt_continue E -2299.175823412969
  Fe     -0.058571      0.235522      0.115652
  O      -1.226598     -0.867007      1.418664
  O       1.685188     -0.240754      1.447265
  O       0.112305     -1.431606     -1.019018
  O       1.695179      1.062380     -1.056820
  O      -1.250893      1.219942     -1.293194
  O      -0.289482      1.910730      1.274641
  C      -2.796441     -2.464041      2.209645
  C       3.591417     -1.530131      2.037642
  C      -0.334066     -3.512655     -2.066795
  C       3.636584      0.848797     -2.407279
  C      -2.961013      2.559860     -2.231508
  C      -1.230576      3.806179      2.329273
  C      -1.988072      3.043693      0.046966
  C      -1.476675     -2.837399      0.085379
  C       3.437203     -0.264307     -0.145960
  C      -1.778175     -2.016371      1.193469
  C       2.847546     -0.628240      1.082811
  C      -0.569579     -2.533649     -0.947039
  C       2.862529      0.549907     -1.145651
  C      -2.007768      2.235652     -1.111667
  C      -1.149965      2.856712      1.164102
  H      -3.212801     -3.450603      1.967310
  H       4.600252     -1.757872      1.668324
  H      -0.932799     -4.424629     -1.945898
  H       4.637477      0.398444     -2.379023
  H      -3.561656      3.453167     -2.017184
  H      -1.974170      4.596550      2.165950
  H      -2.680971      3.884621      0.080142
  H      -2.000046     -3.791849      0.018957
  H       4.428854     -0.671374     -0.354687
  H      -3.614500     -1.726530      2.261410
  H       3.025424     -2.467053      2.164402
  H       0.735478     -3.778940     -2.102237
  H       3.721229      1.939753     -2.529830
  H      -3.628912      1.699830     -2.397601
  H      -0.240496      4.259952      2.494744
  H      -2.328355     -2.499305      3.207350
  H       3.654381     -1.044872      3.023897
  H      -0.582016     -3.037627     -3.030564
  H       3.080373      0.459816     -3.275212
  H      -2.389186      2.714007     -3.160217
  H      -1.487635      3.241301      3.239388
43
Coordinates from ORCA-job Exc_root_opt_continue E -2299.175902162988
  Fe     -0.061653      0.234770      0.114870
  O      -1.226206     -0.869062      1.416818
  O       1.680484     -0.244995      1.445899
  O       0.109328     -1.432314     -1.020047
  O       1.690805      1.064091     -1.055162
  O      -1.251129      1.220797     -1.293093
  O      -0.291679      1.909199      1.273338
  C      -2.787913     -2.469094      2.210440
  C       3.581923     -1.538605      2.034686
  C      -0.329606     -3.516728     -2.059275
  C       3.630138      0.856000     -2.406074
  C      -2.957114      2.567738     -2.235568
  C      -1.229861      3.809838      2.327805
  C      -1.987203      3.050326      0.044387
  C      -1.469184     -2.841542      0.089896
  C       3.429822     -0.266458     -0.147790
  C      -1.772318     -2.019481      1.194054
  C       2.841000     -0.634968      1.080771
  C      -0.566307     -2.535545     -0.942673
  C       2.857086      0.551254     -1.146836
  C      -2.006890      2.241455     -1.113252
  C      -1.150411      2.860404      1.161676
  H      -3.200801     -3.457557      1.970551
  H       4.590521     -1.766522      1.665000
  H      -0.923380     -4.431611     -1.935190
  H       4.630569      0.404169     -2.379802
  H      -3.555266      3.462871     -2.022676
  H      -1.970340      4.602901      2.163566
  H      -2.677638      3.893584      0.076368
  H      -1.988713     -3.798363      0.026472
  H       4.421364     -0.673215     -0.356952
  H      -3.608333     -1.734215      2.260301
  H       3.014902     -2.475114      2.159678
  H       0.740887     -3.777887     -2.096407
  H       3.716449      1.947644     -2.523625
  H      -3.627705      1.709434     -2.402835
  H      -0.238428      4.260375      2.496075
  H      -2.319776     -2.500592      3.208084
  H       3.645395     -1.055190      3.021958
  H      -0.581941     -3.045572     -3.023514
  H       3.073470      0.472173     -3.275771
  H      -2.383584      2.719803     -3.163979
  H      -1.490760      3.245805      3.237829
43
Coordinates from ORCA-job Exc_root_opt_continue E -2299.154861696762
  Fe     -0.066643      0.235005      0.114021
  O      -1.228683     -0.871506      1.415905
  O       1.675002     -0.245927      1.444798
  O       0.105702     -1.431217     -1.022297
  O       1.685957      1.065040     -1.053441
  O      -1.254033      1.224238     -1.294081
  O      -0.295205      1.909070      1.273328
  C      -2.781327     -2.477533      2.212751
  C       3.572984     -1.543707      2.032801
  C      -0.322181     -3.520432     -2.054595
  C       3.623414      0.857908     -2.406006
  C      -2.954220      2.578523     -2.239121
  C      -1.228237      3.814206      2.326678
  C      -1.985442      3.057379      0.042262
  C      -1.461146     -2.847133      0.093942
  C       3.423997     -0.268032     -0.148731
  C      -1.768467     -2.024407      1.195702
  C       2.834877     -0.637511      1.079635
  C      -0.562340     -2.537800     -0.940380
  C       2.851776      0.551741     -1.146754
  C      -2.006802      2.248652     -1.115354
  C      -1.150920      2.864233      1.160648
  H      -3.189055     -3.468521      1.974593
  H       4.581430     -1.773107      1.663673
  H      -0.909649     -4.438909     -1.926823
  H       4.623106      0.404134     -2.382348
  H      -3.549252      3.475806     -2.026583
  H      -1.964767      4.610598      2.160767
  H      -2.672607      3.903563      0.073237
  H      -1.975266     -3.807119      0.033233
  H       4.414570     -0.676361     -0.358997
  H      -3.605431     -1.746707      2.261082
  H       3.004171     -2.479349      2.156176
  H       0.749800     -3.774774     -2.093533
  H       3.711888      1.949723     -2.521398
  H      -3.627904      1.722667     -2.407709
  H      -0.235095      4.260364      2.497289
  H      -2.313084     -2.504965      3.210412
  H       3.636749     -1.062045      3.020950
  H      -0.579862     -3.053518     -3.019386
  H       3.064888      0.477354     -3.275862
  H      -2.378998      2.728782     -3.166913
  H      -1.493694      3.251594      3.236426
43
Coordinates from ORCA-job Exc_root_opt_continue E -2299.191452767598
  Fe     -0.088595      0.234133      0.119691
  O      -1.222260     -0.874344      1.415642
  O       1.659827     -0.265294      1.439025
  O       0.087788     -1.441093     -1.027159
  O       1.660616      1.079738     -1.034502
  O      -1.246571      1.203336     -1.287544
  O      -0.297346      1.902367      1.272736
  C      -2.747864     -2.482942      2.214687
  C       3.523581     -1.611786      1.990901
  C      -0.288383     -3.552432     -2.009105
  C       3.585836      0.921785     -2.385488
  C      -2.928819      2.587539     -2.265163
  C      -1.219965      3.840208      2.326175
  C      -1.977671      3.086144      0.028160
  C      -1.427884     -2.861246      0.116933
  C       3.388351     -0.273012     -0.159904
  C      -1.733744     -2.029641      1.204474
  C       2.806509     -0.667278      1.066663
  C      -0.546225     -2.542729     -0.924462
  C       2.824106      0.571814     -1.137076
  C      -2.002917      2.271653     -1.119171
  C      -1.159172      2.891739      1.155139
  H      -3.144710     -3.480026      1.986919
  H       4.525305     -1.846434      1.609045
  H      -0.849493     -4.483941     -1.861515
  H       4.584127      0.465459     -2.367721
  H      -3.515857      3.495713     -2.071353
  H      -1.943071      4.650303      2.157946
  H      -2.655232      3.943336      0.045796
  H      -1.932373     -3.826282      0.068244
  H       4.369667     -0.692025     -0.389057
  H      -3.575544     -1.755361      2.244930
  H       2.935749     -2.538520      2.087028
  H       0.789761     -3.775879     -2.043280
  H       3.673081      2.016792     -2.468605
  H      -3.618209      1.740189     -2.438495
  H      -0.222148      4.278402      2.509818
  H      -2.283732     -2.490317      3.213868
  H       3.597772     -1.159103      2.991375
  H      -0.559459     -3.110362     -2.980644
  H       3.025012      0.564956     -3.262444
  H      -2.349920      2.722507     -3.196767
  H      -1.499925      3.291935      3.244260
43
Coordinates from ORCA-job Exc_root_opt_continue E -2299.166004586493
  Fe     -0.067699      0.243746      0.115627
  O      -1.237211     -0.852539      1.407138
  O       1.677751     -0.255738      1.442206
  O       0.099680     -1.422901     -1.032276
  O       1.686124      1.080002     -1.046984
  O      -1.252514      1.201962     -1.289095
  O      -0.283167      1.904191      1.278528
  C      -2.790569     -2.451882      2.206747
  C       3.566311     -1.574757      2.009507
  C      -0.303767     -3.528296     -2.034155
  C       3.623686      0.884487     -2.397044
  C      -2.955069      2.555903     -2.238266
  C      -1.222771      3.812861      2.326517
  C      -1.986911      3.043080      0.046209
  C      -1.462670     -2.835453      0.095744
  C       3.416217     -0.265590     -0.153314
  C      -1.772814     -1.999136      1.190220
  C       2.831988     -0.652653      1.073264
  C      -0.556041     -2.528169     -0.938003
  C       2.851324      0.565140     -1.142919
  C      -2.013711      2.233655     -1.108130
  C      -1.151998      2.864058      1.161600
  H      -3.199021     -3.445178      1.975676
  H       4.571937     -1.801243      1.631051
  H      -0.885081     -4.449104     -1.896857
  H       4.620570      0.424202     -2.370985
  H      -3.553560      3.452839     -2.033080
  H      -1.963126      4.605354      2.164275
  H      -2.674974      3.888420      0.075084
  H      -1.975062     -3.798179      0.041010
  H       4.403123     -0.678061     -0.373361
  H      -3.612913     -1.717958      2.244848
  H       2.992641     -2.507307      2.119302
  H       0.770593     -3.771864     -2.061379
  H       3.717130      1.975886     -2.498337
  H      -3.630931      1.702004     -2.413515
  H      -0.233369      4.268338      2.494741
  H      -2.322250     -2.470881      3.204926
  H       3.634806     -1.107814      3.003156
  H      -0.558962     -3.073047     -3.005384
  H       3.064249      0.514954     -3.270628
  H      -2.381845      2.708374     -3.167248
  H      -1.480127      3.258292      3.243587
43
Coordinates from ORCA-job Exc_root_opt_continue E -2299.177969263636
  Fe     -0.061943      0.247058      0.112384
  O      -1.235932     -0.851323      1.400312
  O       1.670951     -0.258979      1.446121
  O       0.098428     -1.424152     -1.031207
  O       1.684450      1.079307     -1.054921
  O      -1.249138      1.199030     -1.286384
  O      -0.279272      1.904391      1.271572
  C      -2.783678     -2.450370      2.204661
  C       3.566147     -1.566136      2.019058
  C      -0.318928     -3.515163     -2.042772
  C       3.630852      0.878931     -2.397081
  C      -2.956849      2.543950     -2.235469
  C      -1.220079      3.805022      2.327551
  C      -1.986138      3.048315      0.042194
  C      -1.457375     -2.840483      0.099374
  C       3.408910     -0.266306     -0.150902
  C      -1.765779     -2.000846      1.187232
  C       2.827117     -0.653382      1.081082
  C      -0.556538     -2.527676     -0.931149
  C       2.850259      0.565281     -1.149200
  C      -2.010078      2.237033     -1.106740
  C      -1.153317      2.864863      1.152967
  H      -3.191298     -3.443232      1.975174
  H       4.572467     -1.792452      1.642260
  H      -0.904024     -4.431538     -1.908121
  H       4.628515      0.420252     -2.366459
  H      -3.558091      3.438888     -2.030225
  H      -1.960182      4.598851      2.166136
  H      -2.676225      3.891850      0.073219
  H      -1.970917     -3.799554      0.042058
  H       4.398484     -0.676263     -0.365771
  H      -3.604441     -1.715692      2.239382
  H       2.995763     -2.500312      2.134052
  H       0.753476     -3.762697     -2.082583
  H       3.725570      1.969902     -2.502959
  H      -3.628367      1.686274     -2.403830
  H      -0.230114      4.259355      2.500825
  H      -2.315380     -2.464941      3.202309
  H       3.634024     -1.095557      3.011139
  H      -0.579250     -3.047594     -3.005363
  H       3.077277      0.506960     -3.272980
  H      -2.389393      2.694392     -3.168315
  H      -1.479961      3.244742      3.241370
43
Coordinates from ORCA-job Exc_root_opt_continue E -2299.175081115976
  Fe     -0.063690      0.245712      0.114130
  O      -1.236405     -0.857725      1.405071
  O       1.667995     -0.260170      1.449067
  O       0.097133     -1.427590     -1.029889
  O       1.683506      1.077403     -1.054559
  O      -1.251391      1.197768     -1.284270
  O      -0.278937      1.904566      1.272384
  C      -2.791372     -2.453291      2.202436
  C       3.570112     -1.560995      2.019241
  C      -0.320216     -3.520193     -2.045915
  C       3.633232      0.882676     -2.396498
  C      -2.960201      2.541571     -2.228762
  C      -1.214379      3.809736      2.323065
  C      -1.980740      3.049250      0.041072
  C      -1.461556     -2.840660      0.096534
  C       3.413189     -0.264772     -0.150206
  C      -1.766155     -2.010041      1.191735
  C       2.828165     -0.646250      1.081220
  C      -0.561110     -2.531241     -0.934490
  C       2.850750      0.565314     -1.147665
  C      -2.007310      2.235443     -1.105165
  C      -1.149345      2.862665      1.153288
  H      -3.203632     -3.440513      1.964059
  H       4.577997     -1.783807      1.645369
  H      -0.903707     -4.440418     -1.906719
  H       4.632818      0.429077     -2.366813
  H      -3.558917      3.439209     -2.022601
  H      -1.949279      4.610854      2.155253
  H      -2.670966      3.894266      0.071708
  H      -1.976858     -3.798515      0.036799
  H       4.405532     -0.668458     -0.361966
  H      -3.606465     -1.713735      2.237861
  H       3.002324     -2.499628      2.129816
  H       0.754554     -3.764669     -2.085257
  H       3.723274      1.975875     -2.501286
  H      -3.633544      1.683185     -2.388456
  H      -0.219248      4.256123      2.495195
  H      -2.329484     -2.476366      3.201529
  H       3.633779     -1.094361      3.015242
  H      -0.584654     -3.054956     -3.010087
  H       3.082867      0.509292     -3.274588
  H      -2.394486      2.687129     -3.164012
  H      -1.483180      3.251241      3.237131
43
Coordinates from ORCA-job Exc_root_opt_continue E -2299.155651472012
  Fe     -0.079946      0.250754      0.110489
  O      -1.242718     -0.869522      1.409057
  O       1.653649     -0.257299      1.442481
  O       0.084707     -1.424435     -1.035895
  O       1.675690      1.078717     -1.051648
  O      -1.257685      1.216863     -1.289263
  O      -0.288602      1.911336      1.270298
  C      -2.779845     -2.487837      2.222549
  C       3.554307     -1.565983      2.013778
  C      -0.315357     -3.534889     -2.043431
  C       3.628837      0.890817     -2.392932
  C      -2.954081      2.575993     -2.241131
  C      -1.213724      3.820706      2.319068
  C      -1.969875      3.076060      0.028188
  C      -1.454167     -2.860417      0.106177
  C       3.411031     -0.268796     -0.152304
  C      -1.766107     -2.032021      1.203109
  C       2.816362     -0.643074      1.072908
  C      -0.565900     -2.539963     -0.937976
  C       2.843852      0.567897     -1.143343
  C      -2.002350      2.255403     -1.116562
  C      -1.144324      2.872497      1.150073
  H      -3.178362     -3.486582      1.989268
  H       4.564258     -1.791298      1.647438
  H      -0.895282     -4.457698     -1.902752
  H       4.630183      0.441323     -2.369067
  H      -3.545347      3.479282     -2.035980
  H      -1.948358      4.618510      2.154445
  H      -2.652861      3.927592      0.055360
  H      -1.952675     -3.832950      0.058421
  H       4.403181     -0.674117     -0.361525
  H      -3.610067     -1.760373      2.260084
  H       2.984127     -2.505566      2.118306
  H       0.759895     -3.775893     -2.075377
  H       3.715164      1.986312     -2.493152
  H      -3.634295      1.721564     -2.398443
  H      -0.220306      4.265466      2.487142
  H      -2.308820     -2.501759      3.220589
  H       3.613494     -1.104116      3.012834
  H      -0.578071     -3.077494     -3.011113
  H       3.080234      0.520135     -3.274939
  H      -2.380109      2.716393     -3.172860
  H      -1.479738      3.258464      3.227629
43
Coordinates from ORCA-job Exc_root_opt_continue E -2299.174537772853
  Fe     -0.085622      0.258072      0.105411
  O      -1.244856     -0.869643      1.413695
  O       1.646098     -0.247827      1.438596
  O       0.081438     -1.416309     -1.037169
  O       1.672150      1.075509     -1.055371
  O      -1.264083      1.233385     -1.295490
  O      -0.294650      1.916978      1.266203
  C      -2.785478     -2.492724      2.236415
  C       3.559127     -1.550126      2.013447
  C      -0.316592     -3.528940     -2.054979
  C       3.635813      0.875591     -2.392813
  C      -2.954839      2.588171     -2.245574
  C      -1.219093      3.808140      2.323073
  C      -1.963693      3.082253      0.022489
  C      -1.448060     -2.876409      0.116951
  C       3.412670     -0.271466     -0.153576
  C      -1.765118     -2.046475      1.217991
  C       2.813570     -0.631913      1.071523
  C      -0.565766     -2.549020     -0.934844
  C       2.842149      0.562389     -1.144539
  C      -1.998283      2.259804     -1.129280
  C      -1.139297      2.869508      1.149309
  H      -3.183553     -3.491103      2.003175
  H       4.570839     -1.778079      1.653020
  H      -0.897149     -4.451325     -1.917354
  H       4.638260      0.428475     -2.368656
  H      -3.545795      3.489511     -2.034883
  H      -1.954187      4.605862      2.158525
  H      -2.644437      3.933215      0.053042
  H      -1.943685     -3.847421      0.066599
  H       4.405426     -0.679396     -0.360039
  H      -3.615872     -1.765676      2.268706
  H       2.993158     -2.489872      2.124019
  H       0.760935     -3.770460     -2.095884
  H       3.721555      1.969269     -2.498555
  H      -3.631754      1.733087     -2.400034
  H      -0.224319      4.249571      2.496432
  H      -2.319804     -2.503153      3.237597
  H       3.616770     -1.084347      3.008706
  H      -0.585343     -3.062499     -3.018319
  H       3.091736      0.501283     -3.275702
  H      -2.380491      2.730991     -3.174519
  H      -1.489875      3.233123      3.222657
43
Coordinates from ORCA-job Exc_root_opt_continue E -2299.175356783381
  Fe     -0.074434      0.248090      0.107133
  O      -1.244208     -0.863505      1.409702
  O       1.657633     -0.254392      1.441208
  O       0.089086     -1.416815     -1.032362
  O       1.678493      1.065188     -1.058651
  O      -1.263043      1.219703     -1.293327
  O      -0.285448      1.906120      1.266641
  C      -2.794396     -2.471871      2.216616
  C       3.570031     -1.537322      2.026788
  C      -0.313328     -3.515597     -2.058436
  C       3.631038      0.861023     -2.396499
  C      -2.965371      2.564456     -2.232066
  C      -1.209724      3.805763      2.323639
  C      -1.970354      3.058000      0.037040
  C      -1.459632     -2.850338      0.097168
  C       3.415488     -0.268181     -0.149098
  C      -1.775160     -2.025945      1.200307
  C       2.822031     -0.637080      1.079124
  C      -0.565555     -2.537391     -0.940057
  C       2.845871      0.553672     -1.146933
  C      -2.006207      2.241660     -1.119540
  C      -1.136244      2.860595      1.154332
  H      -3.203723     -3.458331      1.975330
  H       4.583698     -1.756540      1.665045
  H      -0.902633     -4.429000     -1.934197
  H       4.632633      0.412924     -2.368431
  H      -3.562029      3.458041     -2.015562
  H      -1.948517      4.601059      2.162186
  H      -2.653673      3.904439      0.072715
  H      -1.963686     -3.812102      0.037032
  H       4.409238     -0.670731     -0.355382
  H      -3.614446     -1.739142      2.262081
  H       3.012616     -2.478690      2.145874
  H       0.756652     -3.771512     -2.089692
  H       3.716000      1.951258     -2.510494
  H      -3.634782      1.706064     -2.391080
  H      -0.216657      4.252110      2.488504
  H      -2.331198     -2.501118      3.214627
  H       3.623458     -1.061082      3.016385
  H      -0.562360     -3.047496     -3.022372
  H       3.083202      0.480624     -3.272493
  H      -2.399566      2.715249     -3.163419
  H      -1.470796      3.238146      3.230616
43
Coordinates from ORCA-job Exc_root_opt_continue E -2299.174830472212
  Fe     -0.083295      0.242044      0.106657
  O      -1.251102     -0.864283      1.406069
  O       1.650394     -0.265722      1.438770
  O       0.083987     -1.415001     -1.034698
  O       1.669550      1.065155     -1.056192
  O      -1.269329      1.220625     -1.296563
  O      -0.291912      1.900040      1.266788
  C      -2.778292     -2.488803      2.218464
  C       3.549549     -1.561076      2.023951
  C      -0.293936     -3.526466     -2.042051
  C       3.613712      0.874736     -2.397101
  C      -2.961035      2.590576     -2.240475
  C      -1.203311      3.821031      2.317293
  C      -1.971270      3.067767      0.035615
  C      -1.446077     -2.854659      0.102469
  C       3.401838     -0.269364     -0.149988
  C      -1.771850     -2.027127      1.197433
  C       2.810494     -0.650610      1.077841
  C      -0.558136     -2.536715     -0.938658
  C       2.835074      0.556093     -1.146768
  C      -2.011656      2.254013     -1.120802
  C      -1.140436      2.866584      1.154454
  H      -3.172589     -3.488984      1.986456
  H       4.563340     -1.777812      1.660787
  H      -0.863189     -4.461982     -1.902469
  H       4.614793      0.424709     -2.370448
  H      -3.549214      3.493615     -2.027000
  H      -1.934261      4.625926      2.152686
  H      -2.645947      3.925249      0.066285
  H      -1.937438     -3.830417      0.053081
  H       4.395033     -0.670853     -0.358927
  H      -3.614128     -1.768978      2.262180
  H       2.987873     -2.504302      2.132205
  H       0.787608     -3.758132     -2.074646
  H       3.698831      1.967452     -2.504261
  H      -3.642813      1.739241     -2.406726
  H      -0.204143      4.258992      2.481409
  H      -2.308959     -2.505070      3.216802
  H       3.601752     -1.091922      3.020698
  H      -0.562907     -3.074527     -3.015654
  H       3.062188      0.499524     -3.274381
  H      -2.388590      2.736330     -3.171339
  H      -1.470199      3.263104      3.230756
43
Coordinates from ORCA-job Exc_root_opt_continue E -2299.176903106226
  Fe     -0.090702      0.238880      0.103756
  O      -1.265353     -0.852716      1.396385
  O       1.633981     -0.281762      1.442610
  O       0.083189     -1.401079     -1.036644
  O       1.655975      1.073813     -1.059335
  O      -1.277437      1.226754     -1.304187
  O      -0.300735      1.893645      1.264324
  C      -2.758944     -2.504215      2.220519
  C       3.516833     -1.605468      2.023002
  C      -0.255435     -3.531016     -2.021145
  C       3.597749      0.894716     -2.399567
  C      -2.968103      2.612340     -2.245011
  C      -1.184905      3.842301      2.303852
  C      -1.977388      3.075635      0.034765
  C      -1.424901     -2.855086      0.109701
  C       3.371707     -0.273485     -0.150151
  C      -1.770198     -2.021396      1.192350
  C       2.785401     -0.676134      1.088716
  C      -0.540181     -2.530235     -0.934204
  C       2.816210      0.568430     -1.155634
  C      -2.021783      2.270398     -1.122216
  C      -1.147498      2.875034      1.149836
  H      -3.130039     -3.525239      2.002397
  H       4.529637     -1.825521      1.657014
  H      -0.803607     -4.490660     -1.868777
  H       4.597311      0.439284     -2.372478
  H      -3.550764      3.523546     -2.031756
  H      -1.908063      4.657739      2.138207
  H      -2.645742      3.942193      0.064004
  H      -1.898074     -3.850235      0.072879
  H       4.361910     -0.681184     -0.364814
  H      -3.618573     -1.804400      2.260080
  H       2.946630     -2.550203      2.117838
  H       0.838298     -3.737448     -2.049561
  H       3.689143      1.990358     -2.500560
  H      -3.659508      1.765863     -2.417150
  H      -0.177869      4.270618      2.459056
  H      -2.282051     -2.499168      3.220362
  H       3.574188     -1.148474      3.031247
  H      -0.539536     -3.097332     -3.007254
  H       3.044319      0.527473     -3.282160
  H      -2.394350      2.754364     -3.178866
  H      -1.450742      3.299070      3.228573
43
Coordinates from ORCA-job Exc_root_opt_continue E -2299.175225977427
  Fe     -0.089007      0.242980      0.104209
  O      -1.260826     -0.857351      1.401439
  O       1.636944     -0.271127      1.442999
  O       0.082158     -1.406562     -1.037227
  O       1.662096      1.072611     -1.056236
  O      -1.273740      1.228727     -1.301750
  O      -0.299640      1.898911      1.264604
  C      -2.768562     -2.498471      2.222911
  C       3.534531     -1.580849      2.020487
  C      -0.276099     -3.527945     -2.033939
  C       3.612794      0.882723     -2.395340
  C      -2.966434      2.599946     -2.240388
  C      -1.192749      3.830886      2.307133
  C      -1.977360      3.069995      0.034997
  C      -1.438671     -2.855263      0.105212
  C       3.386165     -0.272416     -0.148673
  C      -1.772965     -2.026753      1.196471
  C       2.794740     -0.662392      1.083667
  C      -0.550929     -2.535563     -0.935897
  C       2.826220      0.563761     -1.150895
  C      -2.016113      2.262838     -1.121815
  C      -1.144453      2.869828      1.149177
  H      -3.150235     -3.506080      1.997544
  H       4.547265     -1.799697      1.656221
  H      -0.839537     -4.463231     -1.894304
  H       4.612338      0.428258     -2.368248
  H      -3.553374      3.503462     -2.025816
  H      -1.920477      4.636707      2.144041
  H      -2.650722      3.928798      0.066742
  H      -1.921017     -3.835559      0.059817
  H       4.377783     -0.679527     -0.359793
  H      -3.615085     -1.790084      2.266010
  H       2.971478     -2.523889      2.124554
  H       0.804240     -3.754787     -2.061986
  H       3.704353      1.976657     -2.498909
  H      -3.649350      1.749983     -2.407564
  H      -0.191858      4.265469      2.462988
  H      -2.294915     -2.503328      3.220481
  H       3.590556     -1.117821      3.019666
  H      -0.542364     -3.082884     -3.008703
  H       3.062853      0.513604     -3.276820
  H      -2.394853      2.745210     -3.172206
  H      -1.455180      3.280225      3.225140
43
Coordinates from ORCA-job Exc_root_opt_continue E -2299.175503222558
  Fe     -0.085369      0.251364      0.103711
  O      -1.254578     -0.862835      1.405548
  O       1.643024     -0.254791      1.436872
  O       0.082317     -1.410296     -1.036673
  O       1.666779      1.070953     -1.053556
  O      -1.268006      1.237986     -1.300107
  O      -0.297103      1.911154      1.263143
  C      -2.778176     -2.491538      2.219380
  C       3.543871     -1.562606      2.014051
  C      -0.286689     -3.529128     -2.038739
  C       3.621217      0.869446     -2.391939
  C      -2.964778      2.593850     -2.234953
  C      -1.205465      3.821990      2.315181
  C      -1.972063      3.075758      0.033029
  C      -1.440746     -2.861364      0.106817
  C       3.400357     -0.276421     -0.152207
  C      -1.769766     -2.034277      1.199562
  C       2.804017     -0.647332      1.073693
  C      -0.555951     -2.540550     -0.934381
  C       2.832862      0.558003     -1.146386
  C      -2.007729      2.263587     -1.122065
  C      -1.138165      2.872880      1.148252
  H      -3.167750     -3.486666      1.985039
  H       4.555942     -1.786226      1.653486
  H      -0.842220     -4.464661     -1.889687
  H       4.621590      0.418008     -2.368056
  H      -3.554641      3.490966     -2.017817
  H      -1.933092      4.626313      2.148487
  H      -2.651858      3.925057      0.068497
  H      -1.927000     -3.833395      0.057922
  H       4.388749     -0.690242     -0.362449
  H      -3.612168     -1.774520      2.260245
  H       2.979844     -2.501868      2.122595
  H       0.795126     -3.746670     -2.080219
  H       3.710392      1.960992     -2.499230
  H      -3.639618      1.739810     -2.393915
  H      -0.206497      4.255709      2.483666
  H      -2.313386     -2.504466      3.216894
  H       3.598490     -1.096693      3.008383
  H      -0.569218     -3.084106     -3.008265
  H       3.072785      0.497361     -3.270585
  H      -2.396834      2.740495     -3.165832
  H      -1.478498      3.258973      3.222606
43
Coordinates from ORCA-job Exc_root_opt_continue E -2299.175515693018
  Fe     -0.086404      0.245411      0.105910
  O      -1.257260     -0.861807      1.406013
  O       1.641176     -0.261672      1.441467
  O       0.085106     -1.409670     -1.033349
  O       1.663046      1.069707     -1.053574
  O      -1.271127      1.232326     -1.300637
  O      -0.299004      1.904876      1.263895
  C      -2.773747     -2.497348      2.220068
  C       3.539856     -1.570072      2.019493
  C      -0.278956     -3.525465     -2.037643
  C       3.613195      0.873911     -2.394973
  C      -2.966624      2.596768     -2.237086
  C      -1.197631      3.827859      2.310681
  C      -1.973950      3.074574      0.033247
  C      -1.438364     -2.857966      0.105784
  C       3.392665     -0.275539     -0.150408
  C      -1.769177     -2.033222      1.199592
  C       2.799824     -0.654002      1.080377
  C      -0.550356     -2.538644     -0.933695
  C       2.827245      0.558916     -1.148971
  C      -2.012275      2.263081     -1.121050
  C      -1.140868      2.872148      1.148448
  H      -3.157167     -3.500560      1.989349
  H       4.552512     -1.791413      1.657187
  H      -0.846379     -4.453026     -1.901450
  H       4.613282      0.421440     -2.370612
  H      -3.553137      3.500042     -2.022673
  H      -1.925361      4.632718      2.146195
  H      -2.650148      3.929857      0.065995
  H      -1.924831     -3.833115      0.056077
  H       4.381843     -0.687017     -0.362381
  H      -3.615690     -1.785750      2.259497
  H       2.976135     -2.511620      2.126075
  H       0.796846     -3.757773     -2.067704
  H       3.702849      1.966922     -2.500884
  H      -3.648199      1.745460     -2.397568
  H      -0.197854      4.262041      2.471705
  H      -2.307207     -2.504445      3.219375
  H       3.594615     -1.105309      3.016791
  H      -0.540933     -3.076408     -3.008073
  H       3.062864      0.502869     -3.274734
  H      -2.396437      2.739173     -3.169524
  H      -1.463976      3.271746      3.223768
43
Coordinates from ORCA-job Exc_root_opt_continue E -2299.175549902013
  Fe     -0.089874      0.244548      0.104306
  O      -1.259375     -0.861994      1.404451
  O       1.638511     -0.263009      1.439435
  O       0.081993     -1.409033     -1.035848
  O       1.661619      1.068933     -1.052957
  O      -1.272092      1.235491     -1.303170
  O      -0.300762      1.904404      1.263114
  C      -2.770669     -2.500297      2.222286
  C       3.534902     -1.572597      2.018026
  C      -0.275272     -3.528786     -2.035020
  C       3.611692      0.875517     -2.393880
  C      -2.965866      2.602407     -2.239615
  C      -1.195972      3.829179      2.310759
  C      -1.973647      3.077915      0.032469
  C      -1.436124     -2.860714      0.107181
  C       3.389940     -0.276823     -0.151223
  C      -1.769004     -2.034070      1.199498
  C       2.796139     -0.657204      1.077930
  C      -0.549677     -2.539683     -0.933927
  C       2.825437      0.557695     -1.148597
  C      -2.012225      2.267809     -1.123167
  C      -1.140544      2.874566      1.147635
  H      -3.154371     -3.502506      1.992301
  H       4.547491     -1.794133      1.655672
  H      -0.834803     -4.463761     -1.892798
  H       4.611423      0.422289     -2.369019
  H      -3.553444      3.503309     -2.023624
  H      -1.922733      4.634713      2.147000
  H      -2.648869      3.933450      0.065722
  H      -1.920402     -3.836959      0.059165
  H       4.379840     -0.686388     -0.362556
  H      -3.612366     -1.789602      2.264451
  H       2.970854     -2.513168      2.125164
  H       0.805055     -3.751338     -2.068344
  H       3.701851      1.968563     -2.497395
  H      -3.645812      1.751113     -2.402884
  H      -0.195982      4.262446      2.472630
  H      -2.302386     -2.508473      3.220262
  H       3.589558     -1.106948      3.014181
  H      -0.546571     -3.084278     -3.007592
  H       3.061648      0.506396     -3.274419
  H      -2.396378      2.747977     -3.171222
  H      -1.462732      3.273042      3.223619
43
Coordinates from ORCA-job Exc_root_opt_continue E -2299.175761250104
  Fe     -0.095887      0.243051      0.103191
  O      -1.262218     -0.864593      1.404252
  O       1.634888     -0.262608      1.436005
  O       0.077486     -1.409052     -1.037551
  O       1.657892      1.067704     -1.049938
  O      -1.274224      1.240620     -1.306701
  O      -0.305520      1.904985      1.262654
  C      -2.763290     -2.509507      2.227779
  C       3.525597     -1.579538      2.013797
  C      -0.269203     -3.533998     -2.030220
  C       3.607077      0.880439     -2.391736
  C      -2.963641      2.612668     -2.244496
  C      -1.194388      3.834271      2.309463
  C      -1.972028      3.085733      0.029395
  C      -1.431992     -2.866022      0.110091
  C       3.387447     -0.277887     -0.152638
  C      -1.767363     -2.038367      1.200949
  C       2.791468     -0.659078      1.073477
  C      -0.548233     -2.542211     -0.933002
  C       2.822199      0.557634     -1.146142
  C      -2.011893      2.275560     -1.126638
  C      -1.140939      2.879233      1.146352
  H      -3.142335     -3.514498      2.001219
  H       4.538216     -1.801816      1.652040
  H      -0.826197     -4.469481     -1.888306
  H       4.606838      0.427434     -2.368046
  H      -3.548836      3.515270     -2.028789
  H      -1.916155      4.645109      2.142513
  H      -2.644389      3.943701      0.061424
  H      -1.911354     -3.845308      0.065627
  H       4.377394     -0.686600     -0.364208
  H      -3.609155     -1.803534      2.271546
  H       2.958705     -2.519288      2.116396
  H       0.810729     -3.754279     -2.060366
  H       3.696293      1.973769     -2.491500
  H      -3.646048      1.763167     -2.407939
  H      -0.191458      4.261547      2.474761
  H      -2.291732     -2.513795      3.224494
  H       3.579027     -1.116797      3.011707
  H      -0.537947     -3.093499     -3.004424
  H       3.056614      0.513675     -3.272802
  H      -2.393281      2.756763     -3.175891
  H      -1.468165      3.279423      3.222202
43
Coordinates from ORCA-job Exc_root_opt_continue E -2299.175593427569
  Fe     -0.092245      0.244380      0.104199
  O      -1.260133     -0.863227      1.404998
  O       1.636808     -0.261222      1.438220
  O       0.081037     -1.408323     -1.035624
  O       1.659435      1.068601     -1.050879
  O      -1.272689      1.239309     -1.305033
  O      -0.303756      1.905650      1.262831
  C      -2.766638     -2.504602      2.224157
  C       3.529630     -1.576641      2.016201
  C      -0.270008     -3.530229     -2.032362
  C       3.608237      0.875958     -2.393760
  C      -2.965012      2.607920     -2.241462
  C      -1.195972      3.832126      2.310192
  C      -1.973730      3.081715      0.031441
  C      -1.432753     -2.862854      0.108637
  C       3.388309     -0.278477     -0.152184
  C      -1.767148     -2.036349      1.200342
  C       2.793856     -0.657569      1.076383
  C      -0.547212     -2.540718     -0.932596
  C       2.823539      0.557814     -1.147582
  C      -2.012401      2.271752     -1.124223
  C      -1.141434      2.877132      1.147126
  H      -3.147428     -3.508462      1.995402
  H       4.541831     -1.799977      1.653937
  H      -0.828568     -4.464942     -1.890860
  H       4.607644      0.421935     -2.370298
  H      -3.551285      3.510138     -2.025701
  H      -1.921047      4.639090      2.145461
  H      -2.648044      3.937959      0.064275
  H      -1.914677     -3.840314      0.061759
  H       4.377421     -0.689601     -0.364359
  H      -3.610687     -1.796451      2.266534
  H       2.962958     -2.516217      2.120949
  H       0.809874     -3.751926     -2.063893
  H       3.698823      1.968874     -2.496415
  H      -3.646544      1.757585     -2.404827
  H      -0.195307      4.263527      2.472692
  H      -2.297560     -2.510419      3.221920
  H       3.584504     -1.112812      3.013489
  H      -0.539312     -3.087363     -3.005576
  H       3.056834      0.507843     -3.273695
  H      -2.394638      2.752587     -3.172954
  H      -1.464512      3.276801      3.223139
43
Coordinates from ORCA-job Exc_root_opt_continue E -2299.175610492944
  Fe     -0.093701      0.243823      0.103785
  O      -1.261028     -0.863995      1.405099
  O       1.635703     -0.260635      1.437336
  O       0.079932     -1.407926     -1.035922
  O       1.658143      1.067880     -1.050245
  O      -1.273290      1.241437     -1.306390
  O      -0.305388      1.905851      1.262596
  C      -2.764997     -2.507047      2.225052
  C       3.526969     -1.578100      2.015605
  C      -0.267488     -3.531057     -2.031096
  C       3.607025      0.876500     -2.393543
  C      -2.964974      2.611069     -2.242149
  C      -1.195308      3.833389      2.309658
  C      -1.973560      3.083640      0.030838
  C      -1.430939     -2.864548      0.109686
  C       3.387335     -0.279690     -0.152760
  C      -1.766239     -2.037997      1.201045
  C       2.792345     -0.658377      1.075523
  C      -0.546259     -2.541402     -0.932032
  C       2.822355      0.557279     -1.147509
  C      -2.012526      2.274032     -1.124966
  C      -1.141736      2.878269      1.146618
  H      -3.144436     -3.511557      1.996790
  H       4.538932     -1.802616      1.653418
  H      -0.824598     -4.466526     -1.889148
  H       4.606370      0.422339     -2.370630
  H      -3.550683      3.513656     -2.025976
  H      -1.919262      4.641310      2.144350
  H      -2.647180      3.940530      0.063568
  H      -1.911355     -3.842807      0.063616
  H       4.376191     -0.691325     -0.365100
  H      -3.609987     -1.800032      2.267333
  H       2.959192     -2.516857      2.120338
  H       0.812735     -3.751123     -2.062413
  H       3.697748      1.969558     -2.495120
  H      -3.647059      1.761190     -2.405669
  H      -0.194054      4.263451      2.472412
  H      -2.295825     -2.511726      3.222773
  H       3.582144     -1.114146      3.012665
  H      -0.537197     -3.089256     -3.004691
  H       3.055418      0.509270     -3.273764
  H      -2.394522      2.755716     -3.173602
  H      -1.464947      3.278554      3.222620
43
Coordinates from ORCA-job Exc_root_opt_continue E -2299.175769321695
  Fe     -0.103063      0.241215      0.100767
  O      -1.267098     -0.866464      1.405632
  O       1.628030     -0.255874      1.431616
  O       0.072164     -1.403466     -1.037828
  O       1.649699      1.064438     -1.046524
  O      -1.276489      1.256532     -1.316522
  O      -0.316727      1.907976      1.261373
  C      -2.751860     -2.522249      2.233675
  C       3.506746     -1.593535      2.008400
  C      -0.249249     -3.536198     -2.020809
  C       3.599234      0.881430     -2.391707
  C      -2.963915      2.631969     -2.248967
  C      -1.193131      3.841576      2.306638
  C      -1.972598      3.096671      0.025860
  C      -1.417575     -2.873969      0.117999
  C       3.380194     -0.285969     -0.156695
  C      -1.760071     -2.046176      1.206198
  C       2.781725     -0.662719      1.070157
  C      -0.539150     -2.544557     -0.927054
  C       2.814617      0.555867     -1.146991
  C      -2.012816      2.290127     -1.131683
  C      -1.144775      2.886509      1.143045
  H      -3.121616     -3.531491      2.009804
  H       4.516863     -1.826279      1.646351
  H      -0.796642     -4.476677     -1.875567
  H       4.598394      0.426942     -2.371778
  H      -3.547175      3.535363     -2.029951
  H      -1.910442      4.654740      2.137505
  H      -2.642497      3.956542      0.058483
  H      -1.886834     -3.858080      0.078077
  H       4.366681     -0.702065     -0.370851
  H      -3.604046     -1.823732      2.276190
  H       2.929520     -2.527757      2.107680
  H       0.833010     -3.745435     -2.049695
  H       3.690383      1.974971     -2.487307
  H      -3.648090      1.784441     -2.414444
  H      -0.188814      4.263806      2.471665
  H      -2.280326     -2.518817      3.230455
  H       3.564432     -1.133737      3.007912
  H      -0.521048     -3.102139     -2.997254
  H       3.046944      0.519006     -3.273376
  H      -2.392988      2.777803     -3.179825
  H      -1.469603      3.289464      3.219346
43
Coordinates from ORCA-job Exc_root_opt_continue E -2299.175649905453
  Fe     -0.099604      0.242011      0.102470
  O      -1.264912     -0.866303      1.406068
  O       1.630655     -0.258118      1.434546
  O       0.075236     -1.405373     -1.036936
  O       1.652269      1.065849     -1.047910
  O      -1.275589      1.249937     -1.311810
  O      -0.312800      1.906296      1.262582
  C      -2.757975     -2.517259      2.230071
  C       3.515849     -1.585544      2.011901
  C      -0.256556     -3.533826     -2.025875
  C       3.601627      0.878959     -2.392642
  C      -2.963880      2.624132     -2.245922
  C      -1.193695      3.838337      2.307593
  C      -1.972070      3.092086      0.027504
  C      -1.422075     -2.871203      0.115202
  C       3.381931     -0.284171     -0.155302
  C      -1.762272     -2.044174      1.204904
  C       2.785388     -0.661510      1.072780
  C      -0.541465     -2.544059     -0.928783
  C       2.816626      0.556185     -1.147611
  C      -2.012394      2.283479     -1.128732
  C      -1.143539      2.882744      1.144622
  H      -3.131286     -3.524681      2.003907
  H       4.526609     -1.815010      1.649436
  H      -0.807958     -4.472131     -1.881957
  H       4.600808      0.424454     -2.371720
  H      -3.547393      3.528110     -2.028621
  H      -1.911787      4.651841      2.138584
  H      -2.642728      3.951607      0.059684
  H      -1.895691     -3.853083      0.072418
  H       4.369320     -0.698510     -0.368920
  H      -3.607390     -1.815347      2.271578
  H       2.943330     -2.521394      2.115641
  H       0.824865     -3.747418     -2.056665
  H       3.692906      1.972365     -2.490585
  H      -3.648152      1.776139     -2.410155
  H      -0.189052      4.261188      2.473038
  H      -2.288260     -2.516948      3.227625
  H       3.573095     -1.122588      3.009200
  H      -0.528300     -3.095756     -3.000484
  H       3.049625      0.514867     -3.274012
  H      -2.392723      2.768474     -3.176991
  H      -1.470597      3.285345      3.220280
43
Coordinates from ORCA-job Exc_root_opt_continue E -2299.175662134563
  Fe     -0.100503      0.242421      0.101939
  O      -1.265157     -0.865832      1.406332
  O       1.629380     -0.256822      1.433729
  O       0.074363     -1.404274     -1.037306
  O       1.651006      1.065494     -1.047521
  O      -1.275131      1.253072     -1.313575
  O      -0.314610      1.907054      1.262368
  C      -2.755641     -2.518120      2.231156
  C       3.512153     -1.588441      2.010425
  C      -0.252741     -3.534461     -2.023752
  C       3.599763      0.878329     -2.393259
  C      -2.962504      2.628614     -2.247491
  C      -1.195239      3.838620      2.308081
  C      -1.972757      3.093164      0.027503
  C      -1.418280     -2.872246      0.117429
  C       3.380100     -0.285864     -0.156459
  C      -1.760107     -2.044736      1.206161
  C       2.783479     -0.662277      1.071901
  C      -0.539303     -2.544404     -0.927285
  C       2.815220      0.555535     -1.148144
  C      -2.011990      2.286257     -1.129783
  C      -1.144781      2.883654      1.144509
  H      -3.126906     -3.526625      2.005887
  H       4.522381     -1.819814      1.647745
  H      -0.801701     -4.474188     -1.878101
  H       4.598554      0.422876     -2.373107
  H      -3.545899      3.532453     -2.029616
  H      -1.915292      4.648856      2.141280
  H      -2.643486      3.952387      0.060096
  H      -1.889951     -3.855112      0.075731
  H       4.366798     -0.701589     -0.370662
  H      -3.606349     -1.817628      2.271114
  H       2.937683     -2.523367      2.113465
  H       0.829361     -3.745191     -2.055121
  H       3.692049      1.971725     -2.490503
  H      -3.646964      1.781085     -2.413366
  H      -0.192914      4.264332      2.471609
  H      -2.286553     -2.515506      3.229087
  H       3.570432     -1.126405      3.008274
  H      -0.526552     -3.097951     -2.998659
  H       3.047035      0.515412     -3.274671
  H      -2.390601      2.773949     -3.177930
  H      -1.467845      3.285564      3.220491
43
Coordinates from ORCA-job Exc_root_opt_continue E -2299.175673807201
  Fe     -0.107206      0.241943      0.101009
  O      -1.268570     -0.867056      1.407794
  O       1.623090     -0.254181      1.431181
  O       0.068703     -1.400871     -1.039030
  O       1.643671      1.064649     -1.044536
  O      -1.276191      1.262837     -1.319128
  O      -0.323980      1.907172      1.263769
  C      -2.746321     -2.528036      2.237808
  C       3.498986     -1.598101      2.004546
  C      -0.239327     -3.537720     -2.016798
  C       3.590817      0.879569     -2.393863
  C      -2.956893      2.645640     -2.254145
  C      -1.197634      3.842245      2.307837
  C      -1.970867      3.102409      0.023847
  C      -1.405134     -2.879511      0.125928
  C       3.371956     -0.290698     -0.160123
  C      -1.753867     -2.050334      1.211521
  C       2.774733     -0.666053      1.068520
  C      -0.532603     -2.547095     -0.922452
  C       2.807550      0.554559     -1.148746
  C      -2.009914      2.297636     -1.134892
  C      -1.148265      2.888098      1.143459
  H      -3.110100     -3.539828      2.015345
  H       4.507625     -1.834725      1.640795
  H      -0.780289     -4.481354     -1.867052
  H       4.588701      0.421948     -2.376820
  H      -3.537721      3.551126     -2.035860
  H      -1.911654      4.657766      2.137525
  H      -2.638352      3.964285      0.055530
  H      -1.868150     -3.866668      0.088543
  H       4.356811     -0.709667     -0.376596
  H      -3.602074     -1.833617      2.275425
  H       2.919313     -2.530068      2.105905
  H       0.844464     -3.739380     -2.048927
  H       3.685346      1.973009     -2.487477
  H      -3.644061      1.800875     -2.422827
  H      -0.192639      4.260970      2.476228
  H      -2.277293     -2.518944      3.235701
  H       3.560393     -1.138632      3.003482
  H      -0.518110     -3.106104     -2.992400
  H       3.036084      0.521028     -3.275782
  H      -2.382498      2.790791     -3.183078
  H      -1.478531      3.290088      3.218837
43
Coordinates from ORCA-job Exc_root_opt_continue E -2299.175676525755
  Fe     -0.108911      0.242226      0.100480
  O      -1.269694     -0.866760      1.407824
  O       1.621455     -0.254488      1.430565
  O       0.066276     -1.400071     -1.040347
  O       1.641896      1.064950     -1.044876
  O      -1.276357      1.264472     -1.320305
  O      -0.326066      1.906492      1.264481
  C      -2.744140     -2.529907      2.240204
  C       3.496468     -1.600272      2.002485
  C      -0.237688     -3.539180     -2.014927
  C       3.589456      0.880944     -2.393941
  C      -2.954323      2.649609     -2.256479
  C      -1.199118      3.841849      2.308421
  C      -1.969649      3.104621      0.022555
  C      -1.402359     -2.881144      0.128553
  C       3.369867     -0.291137     -0.161122
  C      -1.752629     -2.051291      1.213187
  C       2.772475     -0.667123      1.067406
  C      -0.532227     -2.547535     -0.921648
  C       2.805547      0.554541     -1.149420
  C      -2.008649      2.300342     -1.136665
  C      -1.149183      2.888502      1.143398
  H      -3.106143     -3.542577      2.018814
  H       4.504920     -1.837234      1.638501
  H      -0.776885     -4.483533     -1.863886
  H       4.587346      0.423459     -2.377134
  H      -3.534340      3.555607     -2.038262
  H      -1.911880      4.658515      2.137421
  H      -2.636026      3.967508      0.053846
  H      -1.862888     -3.869682      0.092920
  H       4.354532     -0.710309     -0.377918
  H      -3.601109     -1.836924      2.276931
  H       2.916323     -2.532048      2.103424
  H       0.846263     -3.739029     -2.047035
  H       3.684035      1.974578     -2.486373
  H      -3.642177      1.805618     -2.425916
  H      -0.193766      4.259106      2.478718
  H      -2.274990     -2.519004      3.238028
  H       3.558337     -1.141651      3.001781
  H      -0.517687     -3.109121     -2.990752
  H       3.035120      0.523418     -3.276535
  H      -2.379097      2.794405     -3.184912
  H      -1.482333      3.289257      3.218508
