43
Coordinates from ORCA-job Exc_root_opt_continue E -2299.175676525755
  Fe         -0.10891146957045      0.24222603385368      0.10048035634258
  O          -1.26969430022485     -0.86676021497284      1.40782395231247
  O           1.62145515057452     -0.25448781041797      1.43056454442735
  O           0.06627609955795     -1.40007126840825     -1.04034741524616
  O           1.64189640668716      1.06495028047493     -1.04487587721201
  O          -1.27635668145155      1.26447234690089     -1.32030451490762
  O          -0.32606550938839      1.90649242591538      1.26448128647902
  C          -2.74413967055847     -2.52990731076746      2.24020407683219
  C           3.49646772109348     -1.60027213162285      2.00248527913708
  C          -0.23768844485573     -3.53917971556242     -2.01492748727245
  C           3.58945630324346      0.88094434354211     -2.39394052930578
  C          -2.95432284555723      2.64960933832994     -2.25647871255622
  C          -1.19911832430826      3.84184934382591      2.30842064406029
  C          -1.96964909190681      3.10462058307427      0.02255539182557
  C          -1.40235880139466     -2.88114391886100      0.12855313569225
  C           3.36986735391779     -0.29113717341789     -0.16112172546510
  C          -1.75262851309675     -2.05129064863511      1.21318668075897
  C           2.77247455549257     -0.66712339729720      1.06740555988648
  C          -0.53222703630350     -2.54753541212158     -0.92164794262871
  C           2.80554709747982      0.55454096600322     -1.14941957881548
  C          -2.00864871016552      2.30034211070736     -1.13666487004149
  C          -1.14918346242993      2.88850161246122      1.14339787777442
  H          -3.10614315978301     -3.54257691548856      2.01881427007858
  H           4.50491951356203     -1.83723404002264      1.63850139343631
  H          -0.77688538653332     -4.48353256253291     -1.86388630654184
  H           4.58734568681012      0.42345920498259     -2.37713353417615
  H          -3.53433998551219      3.55560670218589     -2.03826165793730
  H          -1.91188024161398      4.65851463997215      2.13742075330239
  H          -2.63602610054659      3.96750770735881      0.05384646628310
  H          -1.86288841438091     -3.86968234966900      0.09292046472168
  H           4.35453211959611     -0.71030863326373     -0.37791799622977
  H          -3.60110850706110     -1.83692437457964      2.27693094658596
  H           2.91632291031815     -2.53204750353459      2.10342431641223
  H           0.84626305455038     -3.73902899165202     -2.04703515592996
  H           3.68403528893944      1.97457762858324     -2.48637260301674
  H          -3.64217715709815      1.80561831067708     -2.42591641323328
  H          -0.19376556670851      4.25910602362138      2.47871788827570
  H          -2.27499028997277     -2.51900394053491      3.23802805586529
  H           3.55833662098719     -1.14165076275420      3.00178059741271
  H          -0.51768738329152     -3.10912107010584     -2.99075230676660
  H           3.03511961958194      0.52341775629040     -3.27653541628585
  H          -2.37909706837004      2.79440529396881     -3.18491175271232
  H          -1.48233338030795      3.28925749349332      3.21850785837823
