43
Coordinates from ORCA-job Exc_root_opt_continue E -2299.235477955712
  Fe          0.42129339643849      0.00940148861745      0.00290871535715
  O          -0.98682597171751     -0.94313272589624      1.27230570608944
  O           1.86889237312667     -0.68013442442361      1.26149134557697
  O           0.15765934515532     -1.89644518039279     -0.92229216461569
  O           1.86968486578088      0.69541085681077     -1.25370307717131
  O          -0.99147587057077      0.95809163530079     -1.26900685452093
  O           0.14499122551793      1.90882908501730      0.93461639861044
  C          -3.15618792935297     -1.67255961783896      1.89766406028670
  C           3.97597834545171     -1.20050659880461      2.20583548445801
  C          -0.98259792672865     -3.47537097665120     -2.28720206715570
  C           3.97685882322159      1.18201723900871     -2.21543488482608
  C          -3.16343191856217      1.68050135359660     -1.89412650324605
  C          -1.00546150440476      3.47891970200619      2.30162892348212
  C          -1.98874413459618      2.56841525696732      0.15816982623043
  C          -1.97334873793464     -2.56571996504670     -0.14734011152613
  C           3.78125833336784     -0.00780647092006     -0.00400687470109
  C          -1.96081927802993     -1.71413510288353      0.97194263567017
  C           3.14003701496910     -0.60316742868921      1.10428696707683
  C          -0.90132284331705     -2.59186118430976     -1.06340481273906
  C           3.14065838887589      0.59756897785007     -1.10715753267259
  C          -1.97042802925340      1.72221530043047     -0.96537301728109
  C          -0.91826033828494      2.59843731729469      1.07623956423731
  H          -3.93655798131477     -2.37608743298448      1.58405859984458
  H           5.05257914503302     -1.11122222803346      2.01306288166158
  H          -1.91247612220580     -4.05619459519742     -2.30874822740211
  H           5.05350554095130      1.07693926417328     -2.03105643317801
  H          -3.94884682811665      2.37764071374195     -1.57831330341823
  H          -1.93836356171181      4.05513352223386      2.32405576373529
  H          -2.86814988327268      3.18219606342147      0.34582085436063
  H          -2.84933855172003     -3.18427376355951     -0.33464218863290
  H           4.87143524835016     -0.01599106953694     -0.00815693498029
  H          -3.56263734624672     -0.64919719699607      1.91230226231286
  H           3.71357957893148     -2.26415689923083      2.32501473480367
  H          -0.11714503023771     -4.15624765058208     -2.29358701738606
  H           3.72939485807954      2.24937515124189     -2.33347487414854
  H          -3.56455620386983      0.65512904889810     -1.91682726922197
  H          -0.14377217476176      4.16464575890907      2.31053989661815
  H          -2.82418736252119     -1.91388319148316      2.91946818420998
  H           3.73380796147767     -0.69921908020363      3.15709050441545
  H          -0.91755070537581     -2.84554898191845     -3.18839490210758
  H           3.71986156215669      0.68369005074637     -3.16434728016389
  H          -2.83103554428305      1.93026989876828     -2.91387658562394
  H          -0.93795422849456      2.84803408054811      3.20196960768149
